Version,
  25.2;                                   !- Version Identifier

Timestep,
  60;                                     !- Number of Timesteps per Hour (1-minute resolution)

LifeCycleCost:Parameters,
  Life Cycle Cost Parameters,             !- Name
  EndOfYear,                              !- Discounting Convention
  ConstantDollar,                         !- Inflation Approach
  0.03,                                   !- Real Discount Rate
  ,                                       !- Nominal Discount Rate
  ,                                       !- Inflation
  ,                                       !- Base Date Month
  2011,                                   !- Base Date Year
  ,                                       !- Service Date Month
  2011,                                   !- Service Date Year
  25,                                     !- Length of Study Period in Years
  ,                                       !- Tax rate
  None;                                   !- Depreciation Method

LifeCycleCost:UsePriceEscalation,
  U.S. Avg  Commercial-Electricity,       !- Name
  Electricity,                            !- Resource
  2011,                                   !- Escalation Start Year
  January,                                !- Escalation Start Month
  0.9838,                                 !- Year Escalation 1
  0.9730,                                 !- Year Escalation 2
  0.9632,                                 !- Year Escalation 3
  0.9611,                                 !- Year Escalation 4
  0.9571,                                 !- Year Escalation 5
  0.9553,                                 !- Year Escalation 6
  0.9539,                                 !- Year Escalation 7
  0.9521,                                 !- Year Escalation 8
  0.9546,                                 !- Year Escalation 9
  0.9550,                                 !- Year Escalation 10
  0.9553,                                 !- Year Escalation 11
  0.9564,                                 !- Year Escalation 12
  0.9575,                                 !- Year Escalation 13
  0.9596,                                 !- Year Escalation 14
  0.9618,                                 !- Year Escalation 15
  0.9614,                                 !- Year Escalation 16
  0.9618,                                 !- Year Escalation 17
  0.9618,                                 !- Year Escalation 18
  0.9593,                                 !- Year Escalation 19
  0.9589,                                 !- Year Escalation 20
  0.9607,                                 !- Year Escalation 21
  0.9625,                                 !- Year Escalation 22
  0.9650,                                 !- Year Escalation 23
  0.9708,                                 !- Year Escalation 24
  0.9751,                                 !- Year Escalation 25
  0.9762,                                 !- Year Escalation 26
  0.9766,                                 !- Year Escalation 27
  0.9766,                                 !- Year Escalation 28
  0.9769,                                 !- Year Escalation 29
  0.9773;                                 !- Year Escalation 30

LifeCycleCost:UsePriceEscalation,
  U.S. Avg  Commercial-Distillate Oil,    !- Name
  FuelOilNo1,                             !- Resource
  2011,                                   !- Escalation Start Year
  January,                                !- Escalation Start Month
  0.9714,                                 !- Year Escalation 1
  0.9730,                                 !- Year Escalation 2
  0.9942,                                 !- Year Escalation 3
  1.0164,                                 !- Year Escalation 4
  1.0541,                                 !- Year Escalation 5
  1.0928,                                 !- Year Escalation 6
  1.1267,                                 !- Year Escalation 7
  1.1580,                                 !- Year Escalation 8
  1.1792,                                 !- Year Escalation 9
  1.1967,                                 !- Year Escalation 10
  1.2200,                                 !- Year Escalation 11
  1.2333,                                 !- Year Escalation 12
  1.2566,                                 !- Year Escalation 13
  1.2709,                                 !- Year Escalation 14
  1.2826,                                 !- Year Escalation 15
  1.2985,                                 !- Year Escalation 16
  1.3102,                                 !- Year Escalation 17
  1.3250,                                 !- Year Escalation 18
  1.3261,                                 !- Year Escalation 19
  1.3282,                                 !- Year Escalation 20
  1.3324,                                 !- Year Escalation 21
  1.3356,                                 !- Year Escalation 22
  1.3431,                                 !- Year Escalation 23
  1.3510,                                 !- Year Escalation 24
  1.3568,                                 !- Year Escalation 25
  1.3606,                                 !- Year Escalation 26
  1.3637,                                 !- Year Escalation 27
  1.3674,                                 !- Year Escalation 28
  1.3706,                                 !- Year Escalation 29
  1.3743;                                 !- Year Escalation 30

LifeCycleCost:UsePriceEscalation,
  U.S. Avg  Commercial-Residual Oil,      !- Name
  FuelOilNo2,                             !- Resource
  2011,                                   !- Escalation Start Year
  January,                                !- Escalation Start Month
  0.8469,                                 !- Year Escalation 1
  0.8257,                                 !- Year Escalation 2
  0.8681,                                 !- Year Escalation 3
  0.8988,                                 !- Year Escalation 4
  0.9289,                                 !- Year Escalation 5
  0.9604,                                 !- Year Escalation 6
  0.9897,                                 !- Year Escalation 7
  1.0075,                                 !- Year Escalation 8
  1.0314,                                 !- Year Escalation 9
  1.0554,                                 !- Year Escalation 10
  1.0861,                                 !- Year Escalation 11
  1.1278,                                 !- Year Escalation 12
  1.1497,                                 !- Year Escalation 13
  1.1620,                                 !- Year Escalation 14
  1.1743,                                 !- Year Escalation 15
  1.1852,                                 !- Year Escalation 16
  1.1948,                                 !- Year Escalation 17
  1.2037,                                 !- Year Escalation 18
  1.2071,                                 !- Year Escalation 19
  1.2119,                                 !- Year Escalation 20
  1.2139,                                 !- Year Escalation 21
  1.2194,                                 !- Year Escalation 22
  1.2276,                                 !- Year Escalation 23
  1.2365,                                 !- Year Escalation 24
  1.2420,                                 !- Year Escalation 25
  1.2461,                                 !- Year Escalation 26
  1.2509,                                 !- Year Escalation 27
  1.2550,                                 !- Year Escalation 28
  1.2591,                                 !- Year Escalation 29
  1.2638;                                 !- Year Escalation 30

LifeCycleCost:UsePriceEscalation,
  U.S. Avg  Commercial-Natural gas,       !- Name
  NaturalGas,                             !- Resource
  2011,                                   !- Escalation Start Year
  January,                                !- Escalation Start Month
  0.9823,                                 !- Year Escalation 1
  0.9557,                                 !- Year Escalation 2
  0.9279,                                 !- Year Escalation 3
  0.9257,                                 !- Year Escalation 4
  0.9346,                                 !- Year Escalation 5
  0.9412,                                 !- Year Escalation 6
  0.9512,                                 !- Year Escalation 7
  0.9645,                                 !- Year Escalation 8
  0.9856,                                 !- Year Escalation 9
  1.0067,                                 !- Year Escalation 10
  1.0222,                                 !- Year Escalation 11
  1.0410,                                 !- Year Escalation 12
  1.0610,                                 !- Year Escalation 13
  1.0787,                                 !- Year Escalation 14
  1.0942,                                 !- Year Escalation 15
  1.1098,                                 !- Year Escalation 16
  1.1220,                                 !- Year Escalation 17
  1.1308,                                 !- Year Escalation 18
  1.1386,                                 !- Year Escalation 19
  1.1486,                                 !- Year Escalation 20
  1.1619,                                 !- Year Escalation 21
  1.1763,                                 !- Year Escalation 22
  1.1918,                                 !- Year Escalation 23
  1.2118,                                 !- Year Escalation 24
  1.2284,                                 !- Year Escalation 25
  1.2439,                                 !- Year Escalation 26
  1.2605,                                 !- Year Escalation 27
  1.2772,                                 !- Year Escalation 28
  1.2938,                                 !- Year Escalation 29
  1.3115;                                 !- Year Escalation 30

LifeCycleCost:UsePriceEscalation,
  U.S. Avg  Commercial-Coal,              !- Name
  Coal,                                   !- Resource
  2011,                                   !- Escalation Start Year
  January,                                !- Escalation Start Month
  0.9970,                                 !- Year Escalation 1
  1.0089,                                 !- Year Escalation 2
  1.0089,                                 !- Year Escalation 3
  0.9941,                                 !- Year Escalation 4
  0.9941,                                 !- Year Escalation 5
  1.0000,                                 !- Year Escalation 6
  1.0030,                                 !- Year Escalation 7
  1.0059,                                 !- Year Escalation 8
  1.0089,                                 !- Year Escalation 9
  1.0119,                                 !- Year Escalation 10
  1.0148,                                 !- Year Escalation 11
  1.0178,                                 !- Year Escalation 12
  1.0208,                                 !- Year Escalation 13
  1.0267,                                 !- Year Escalation 14
  1.0297,                                 !- Year Escalation 15
  1.0356,                                 !- Year Escalation 16
  1.0415,                                 !- Year Escalation 17
  1.0534,                                 !- Year Escalation 18
  1.0564,                                 !- Year Escalation 19
  1.0593,                                 !- Year Escalation 20
  1.0653,                                 !- Year Escalation 21
  1.0712,                                 !- Year Escalation 22
  1.0742,                                 !- Year Escalation 23
  1.0801,                                 !- Year Escalation 24
  1.0831,                                 !- Year Escalation 25
  1.0831,                                 !- Year Escalation 26
  1.0861,                                 !- Year Escalation 27
  1.0890,                                 !- Year Escalation 28
  1.0920,                                 !- Year Escalation 29
  1.0950;                                 !- Year Escalation 30

Building,
  Building 1,                             !- Name
  ,                                       !- North Axis {deg}
  ,                                       !- Terrain
  ,                                       !- Loads Convergence Tolerance Value {W}
  ,                                       !- Temperature Convergence Tolerance Value {deltaC}
  ,                                       !- Solar Distribution
  ,                                       !- Maximum Number of Warmup Days
  ;                                       !- Minimum Number of Warmup Days

Zone,
  Chamber_ThermalZone,                    !- Name
  ,                                       !- Direction of Relative North {deg}
  0,                                      !- X Origin {m}
  0,                                      !- Y Origin {m}
  0,                                      !- Z Origin {m}
  ,                                       !- Type
  1,                                      !- Multiplier
  ,                                       !- Ceiling Height {m}
  ,                                       !- Volume {m3}
  ,                                       !- Floor Area {m2}
  ,                                       !- Zone Inside Convection Algorithm
  ,                                       !- Zone Outside Convection Algorithm
  Yes;                                    !- Part of Total Floor Area

Space,
  Chamber,                                !- Name
  Chamber_ThermalZone,                    !- Zone Name
  ,                                       !- Ceiling Height {m}
  ,                                       !- Volume {m3}
  ;                                       !- Floor Area {m2}

BuildingSurface:Detailed,
  Chamber_Floor,                          !- Name
  Floor,                                  !- Surface Type
  Const_Composite_2x4_Wood_Stud_R11__3_Composite_2x4_Wood_Stud_R11__2_Composite_2x4_Wood_Stud_R11__1, !- Construction Name
  Chamber_ThermalZone,                    !- Zone Name
  Chamber,                                !- Space Name
  Ground,                                 !- Outside Boundary Condition
  ,                                       !- Outside Boundary Condition Object
  NoSun,                                  !- Sun Exposure
  NoWind,                                 !- Wind Exposure
  ,                                       !- View Factor to Ground
  ,                                       !- Number of Vertices
  0, 2, 0,                                !- X,Y,Z Vertex 1 {m}
  2, 2, 0,                                !- X,Y,Z Vertex 2 {m}
  2, 0, 0,                                !- X,Y,Z Vertex 3 {m}
  0, 0, 0;                                !- X,Y,Z Vertex 4 {m}

BuildingSurface:Detailed,
  Chamber_Roof,                           !- Name
  Roof,                                   !- Surface Type
  Const_Composite_2x4_Wood_Stud_R11__3_Composite_2x4_Wood_Stud_R11__2_Composite_2x4_Wood_Stud_R11__1, !- Construction Name
  Chamber_ThermalZone,                    !- Zone Name
  Chamber,                                !- Space Name
  Outdoors,                               !- Outside Boundary Condition
  ,                                       !- Outside Boundary Condition Object
  SunExposed,                             !- Sun Exposure
  WindExposed,                            !- Wind Exposure
  ,                                       !- View Factor to Ground
  ,                                       !- Number of Vertices
  0, 2, 2,                                !- X,Y,Z Vertex 1 {m}
  0, 0, 2,                                !- X,Y,Z Vertex 2 {m}
  2, 0, 2,                                !- X,Y,Z Vertex 3 {m}
  2, 2, 2;                                !- X,Y,Z Vertex 4 {m}

BuildingSurface:Detailed,
  Chamber_Wall_East,                      !- Name
  Wall,                                   !- Surface Type
  Const_Composite_2x4_Wood_Stud_R11__3_Composite_2x4_Wood_Stud_R11__2_Composite_2x4_Wood_Stud_R11__1, !- Construction Name
  Chamber_ThermalZone,                    !- Zone Name
  Chamber,                                !- Space Name
  Outdoors,                               !- Outside Boundary Condition
  ,                                       !- Outside Boundary Condition Object
  SunExposed,                             !- Sun Exposure
  WindExposed,                            !- Wind Exposure
  ,                                       !- View Factor to Ground
  ,                                       !- Number of Vertices
  2, 0, 0,                                !- X,Y,Z Vertex 1 {m}
  2, 2, 0,                                !- X,Y,Z Vertex 2 {m}
  2, 2, 2,                                !- X,Y,Z Vertex 3 {m}
  2, 0, 2;                                !- X,Y,Z Vertex 4 {m}

BuildingSurface:Detailed,
  Chamber_Wall_North,                     !- Name
  Wall,                                   !- Surface Type
  Const_Composite_2x4_Wood_Stud_R11__3_Composite_2x4_Wood_Stud_R11__2_Composite_2x4_Wood_Stud_R11__1, !- Construction Name
  Chamber_ThermalZone,                    !- Zone Name
  Chamber,                                !- Space Name
  Outdoors,                               !- Outside Boundary Condition
  ,                                       !- Outside Boundary Condition Object
  SunExposed,                             !- Sun Exposure
  WindExposed,                            !- Wind Exposure
  ,                                       !- View Factor to Ground
  ,                                       !- Number of Vertices
  2, 2, 0,                                !- X,Y,Z Vertex 1 {m}
  0, 2, 0,                                !- X,Y,Z Vertex 2 {m}
  0, 2, 2,                                !- X,Y,Z Vertex 3 {m}
  2, 2, 2;                                !- X,Y,Z Vertex 4 {m}

BuildingSurface:Detailed,
  Chamber_Wall_South,                     !- Name
  Wall,                                   !- Surface Type
  Const_Composite_2x4_Wood_Stud_R11__3_Composite_2x4_Wood_Stud_R11__2_Composite_2x4_Wood_Stud_R11__1, !- Construction Name
  Chamber_ThermalZone,                    !- Zone Name
  Chamber,                                !- Space Name
  Outdoors,                               !- Outside Boundary Condition
  ,                                       !- Outside Boundary Condition Object
  SunExposed,                             !- Sun Exposure
  WindExposed,                            !- Wind Exposure
  ,                                       !- View Factor to Ground
  ,                                       !- Number of Vertices
  0, 0, 0,                                !- X,Y,Z Vertex 1 {m}
  2, 0, 0,                                !- X,Y,Z Vertex 2 {m}
  2, 0, 2,                                !- X,Y,Z Vertex 3 {m}
  0, 0, 2;                                !- X,Y,Z Vertex 4 {m}

BuildingSurface:Detailed,
  Chamber_Wall_West,                      !- Name
  Wall,                                   !- Surface Type
  Const_Composite_2x4_Wood_Stud_R11__3_Composite_2x4_Wood_Stud_R11__2_Composite_2x4_Wood_Stud_R11__1, !- Construction Name
  Chamber_ThermalZone,                    !- Zone Name
  Chamber,                                !- Space Name
  Outdoors,                               !- Outside Boundary Condition
  ,                                       !- Outside Boundary Condition Object
  SunExposed,                             !- Sun Exposure
  WindExposed,                            !- Wind Exposure
  ,                                       !- View Factor to Ground
  ,                                       !- Number of Vertices
  0, 2, 0,                                !- X,Y,Z Vertex 1 {m}
  0, 0, 0,                                !- X,Y,Z Vertex 2 {m}
  0, 0, 2,                                !- X,Y,Z Vertex 3 {m}
  0, 2, 2;                                !- X,Y,Z Vertex 4 {m}

Lights,
  Chamber_Lights,                         !- Name
  Chamber,                                !- Zone or ZoneList or Space or SpaceList Name
  LIGHTING_SCH,                           !- Schedule Name
  Watts/Area,                             !- Design Level Calculation Method
  ,                                       !- Lighting Level {W}
  8,                                      !- Watts per Floor Area {W/m2}
  ,                                       !- Watts per Person {W/person}
  ,                                       !- Return Air Fraction
  ,                                       !- Fraction Radiant
  ,                                       !- Fraction Visible
  1,                                      !- Fraction Replaceable
  General;                                !- End-Use Subcategory

ScheduleTypeLimits,
  Fractional,                             !- Name
  0,                                      !- Lower Limit Value {BasedOnField A3}
  1,                                      !- Upper Limit Value {BasedOnField A3}
  Continuous;                             !- Numeric Type

Schedule:Day:Interval,
  LIGHTING_SCH_DefaultDay,                !- Name
  Fractional,                             !- Schedule Type Limits Name
  No,                                     !- Interpolate to Timestep
  08:00,                                  !- Time 1 {hh:mm}
  0,                                      !- Value Until Time 1
  18:00,                                  !- Time 2 {hh:mm}
  1,                                      !- Value Until Time 2
  24:00,                                  !- Time 3 {hh:mm}
  0;                                      !- Value Until Time 3

Schedule:Day:Interval,
  LIGHTING_SCH_WeekendDay,                !- Name
  Fractional,                             !- Schedule Type Limits Name
  No,                                     !- Interpolate to Timestep
  24:00,                                  !- Time 1 {hh:mm}
  0;                                      !- Value Until Time 1

Schedule:Week:Daily,
  LIGHTING_SCH Week Rule - Jan1-Jan3,     !- Name
  LIGHTING_SCH_DefaultDay,                !- Sunday Schedule:Day Name
  LIGHTING_SCH_DefaultDay,                !- Monday Schedule:Day Name
  LIGHTING_SCH_DefaultDay,                !- Tuesday Schedule:Day Name
  LIGHTING_SCH_DefaultDay,                !- Wednesday Schedule:Day Name
  LIGHTING_SCH_DefaultDay,                !- Thursday Schedule:Day Name
  LIGHTING_SCH_DefaultDay,                !- Friday Schedule:Day Name
  LIGHTING_SCH_WeekendDay,                !- Saturday Schedule:Day Name
  LIGHTING_SCH_DefaultDay,                !- Holiday Schedule:Day Name
  LIGHTING_SCH_DefaultDay,                !- SummerDesignDay Schedule:Day Name
  LIGHTING_SCH_DefaultDay,                !- WinterDesignDay Schedule:Day Name
  LIGHTING_SCH_DefaultDay,                !- CustomDay1 Schedule:Day Name
  LIGHTING_SCH_DefaultDay;                !- CustomDay2 Schedule:Day Name

Schedule:Week:Daily,
  LIGHTING_SCH Week Rule - Jan4-Dec31,    !- Name
  LIGHTING_SCH_WeekendDay,                !- Sunday Schedule:Day Name
  LIGHTING_SCH_DefaultDay,                !- Monday Schedule:Day Name
  LIGHTING_SCH_DefaultDay,                !- Tuesday Schedule:Day Name
  LIGHTING_SCH_DefaultDay,                !- Wednesday Schedule:Day Name
  LIGHTING_SCH_DefaultDay,                !- Thursday Schedule:Day Name
  LIGHTING_SCH_DefaultDay,                !- Friday Schedule:Day Name
  LIGHTING_SCH_WeekendDay,                !- Saturday Schedule:Day Name
  LIGHTING_SCH_DefaultDay,                !- Holiday Schedule:Day Name
  LIGHTING_SCH_DefaultDay,                !- SummerDesignDay Schedule:Day Name
  LIGHTING_SCH_DefaultDay,                !- WinterDesignDay Schedule:Day Name
  LIGHTING_SCH_DefaultDay,                !- CustomDay1 Schedule:Day Name
  LIGHTING_SCH_DefaultDay;                !- CustomDay2 Schedule:Day Name

Schedule:Year,
  LIGHTING_SCH,                           !- Name
  Fractional,                             !- Schedule Type Limits Name
  LIGHTING_SCH Week Rule - Jan1-Jan3,     !- Schedule:Week Name 1
  1,                                      !- Start Month 1
  1,                                      !- Start Day 1
  1,                                      !- End Month 1
  3,                                      !- End Day 1
  LIGHTING_SCH Week Rule - Jan4-Dec31,    !- Schedule:Week Name 2
  1,                                      !- Start Month 2
  4,                                      !- Start Day 2
  12,                                     !- End Month 2
  31;                                     !- End Day 2

People,
  Chamber_People,                         !- Name
  Chamber,                                !- Zone or ZoneList or Space or SpaceList Name
  OCCUPANCY_SCH,                          !- Number of People Schedule Name
  Area/Person,                            !- Number of People Calculation Method
  ,                                       !- Number of People
  ,                                       !- People per Floor Area {person/m2}
  15,                                     !- Floor Area per Person {m2/person}
  0.3,                                    !- Fraction Radiant
  ,                                       !- Sensible Heat Fraction
  ACTIVITY_LEVEL_SCH;                     !- Activity Level Schedule Name

Schedule:Day:Interval,
  OCCUPANCY_SCH_DefaultDay,               !- Name
  Fractional,                             !- Schedule Type Limits Name
  No,                                     !- Interpolate to Timestep
  08:00,                                  !- Time 1 {hh:mm}
  0,                                      !- Value Until Time 1
  18:00,                                  !- Time 2 {hh:mm}
  1,                                      !- Value Until Time 2
  24:00,                                  !- Time 3 {hh:mm}
  0;                                      !- Value Until Time 3

Schedule:Day:Interval,
  OCCUPANCY_SCH_WeekendDay,               !- Name
  Fractional,                             !- Schedule Type Limits Name
  No,                                     !- Interpolate to Timestep
  24:00,                                  !- Time 1 {hh:mm}
  0;                                      !- Value Until Time 1

Schedule:Week:Daily,
  OCCUPANCY_SCH Week Rule - Jan1-Jan3,    !- Name
  OCCUPANCY_SCH_DefaultDay,               !- Sunday Schedule:Day Name
  OCCUPANCY_SCH_DefaultDay,               !- Monday Schedule:Day Name
  OCCUPANCY_SCH_DefaultDay,               !- Tuesday Schedule:Day Name
  OCCUPANCY_SCH_DefaultDay,               !- Wednesday Schedule:Day Name
  OCCUPANCY_SCH_DefaultDay,               !- Thursday Schedule:Day Name
  OCCUPANCY_SCH_DefaultDay,               !- Friday Schedule:Day Name
  OCCUPANCY_SCH_WeekendDay,               !- Saturday Schedule:Day Name
  OCCUPANCY_SCH_DefaultDay,               !- Holiday Schedule:Day Name
  OCCUPANCY_SCH_DefaultDay,               !- SummerDesignDay Schedule:Day Name
  OCCUPANCY_SCH_DefaultDay,               !- WinterDesignDay Schedule:Day Name
  OCCUPANCY_SCH_DefaultDay,               !- CustomDay1 Schedule:Day Name
  OCCUPANCY_SCH_DefaultDay;               !- CustomDay2 Schedule:Day Name

Schedule:Week:Daily,
  OCCUPANCY_SCH Week Rule - Jan4-Dec31,   !- Name
  OCCUPANCY_SCH_WeekendDay,               !- Sunday Schedule:Day Name
  OCCUPANCY_SCH_DefaultDay,               !- Monday Schedule:Day Name
  OCCUPANCY_SCH_DefaultDay,               !- Tuesday Schedule:Day Name
  OCCUPANCY_SCH_DefaultDay,               !- Wednesday Schedule:Day Name
  OCCUPANCY_SCH_DefaultDay,               !- Thursday Schedule:Day Name
  OCCUPANCY_SCH_DefaultDay,               !- Friday Schedule:Day Name
  OCCUPANCY_SCH_WeekendDay,               !- Saturday Schedule:Day Name
  OCCUPANCY_SCH_DefaultDay,               !- Holiday Schedule:Day Name
  OCCUPANCY_SCH_DefaultDay,               !- SummerDesignDay Schedule:Day Name
  OCCUPANCY_SCH_DefaultDay,               !- WinterDesignDay Schedule:Day Name
  OCCUPANCY_SCH_DefaultDay,               !- CustomDay1 Schedule:Day Name
  OCCUPANCY_SCH_DefaultDay;               !- CustomDay2 Schedule:Day Name

Schedule:Year,
  OCCUPANCY_SCH,                          !- Name
  Fractional,                             !- Schedule Type Limits Name
  OCCUPANCY_SCH Week Rule - Jan1-Jan3,    !- Schedule:Week Name 1
  1,                                      !- Start Month 1
  1,                                      !- Start Day 1
  1,                                      !- End Month 1
  3,                                      !- End Day 1
  OCCUPANCY_SCH Week Rule - Jan4-Dec31,   !- Schedule:Week Name 2
  1,                                      !- Start Month 2
  4,                                      !- Start Day 2
  12,                                     !- End Month 2
  31;                                     !- End Day 2

Schedule:Constant,
  ACTIVITY_LEVEL_SCH,                     !- Name
  ActivityLevel,                          !- Schedule Type Limits Name
  120;                                    !- Hourly Value

ElectricEquipment,
Chamber_Equip,                          !- Name
  Chamber,                                !- Zone or ZoneList or Space or SpaceList Name
  EQUIPMENT_SCH,                          !- Schedule Name
  Watts/Area,                             !- Design Level Calculation Method
 0.00,                                       !- Design Level {W}
  10,                                     !- Watts per Floor Area {W/m2}
  ,                                       !- Watts per Person {W/person}
  ,                                       !- Fraction Latent
  ,                                       !- Fraction Radiant
  ,                                       !- Fraction Lost
  General;                                !- End-Use Subcategory

Schedule:Day:Interval,
  EQUIPMENT_SCH_DefaultDay,               !- Name
  Fractional,                             !- Schedule Type Limits Name
  No,                                     !- Interpolate to Timestep
  24:00,                                  !- Time 1 {hh:mm}
  1;                                      !- Value Until Time 1

Schedule:Day:Interval,
  EQUIPMENT_SCH_WeekendDay,               !- Name
  Fractional,                             !- Schedule Type Limits Name
  No,                                     !- Interpolate to Timestep
  24:00,                                  !- Time 1 {hh:mm}
  1;                                      !- Value Until Time 1

Schedule:Week:Daily,
  EQUIPMENT_SCH Week Rule - Jan1-Jan3,    !- Name
  EQUIPMENT_SCH_DefaultDay,               !- Sunday Schedule:Day Name
  EQUIPMENT_SCH_DefaultDay,               !- Monday Schedule:Day Name
  EQUIPMENT_SCH_DefaultDay,               !- Tuesday Schedule:Day Name
  EQUIPMENT_SCH_DefaultDay,               !- Wednesday Schedule:Day Name
  EQUIPMENT_SCH_DefaultDay,               !- Thursday Schedule:Day Name
  EQUIPMENT_SCH_DefaultDay,               !- Friday Schedule:Day Name
  EQUIPMENT_SCH_WeekendDay,               !- Saturday Schedule:Day Name
  EQUIPMENT_SCH_DefaultDay,               !- Holiday Schedule:Day Name
  EQUIPMENT_SCH_DefaultDay,               !- SummerDesignDay Schedule:Day Name
  EQUIPMENT_SCH_DefaultDay,               !- WinterDesignDay Schedule:Day Name
  EQUIPMENT_SCH_DefaultDay,               !- CustomDay1 Schedule:Day Name
  EQUIPMENT_SCH_DefaultDay;               !- CustomDay2 Schedule:Day Name

Schedule:Week:Daily,
  EQUIPMENT_SCH Week Rule - Jan4-Dec31,   !- Name
  EQUIPMENT_SCH_WeekendDay,               !- Sunday Schedule:Day Name
  EQUIPMENT_SCH_DefaultDay,               !- Monday Schedule:Day Name
  EQUIPMENT_SCH_DefaultDay,               !- Tuesday Schedule:Day Name
  EQUIPMENT_SCH_DefaultDay,               !- Wednesday Schedule:Day Name
  EQUIPMENT_SCH_DefaultDay,               !- Thursday Schedule:Day Name
  EQUIPMENT_SCH_DefaultDay,               !- Friday Schedule:Day Name
  EQUIPMENT_SCH_WeekendDay,               !- Saturday Schedule:Day Name
  EQUIPMENT_SCH_DefaultDay,               !- Holiday Schedule:Day Name
  EQUIPMENT_SCH_DefaultDay,               !- SummerDesignDay Schedule:Day Name
  EQUIPMENT_SCH_DefaultDay,               !- WinterDesignDay Schedule:Day Name
  EQUIPMENT_SCH_DefaultDay,               !- CustomDay1 Schedule:Day Name
  EQUIPMENT_SCH_DefaultDay;               !- CustomDay2 Schedule:Day Name

Schedule:Year,
  EQUIPMENT_SCH,                          !- Name
  Fractional,                             !- Schedule Type Limits Name
  EQUIPMENT_SCH Week Rule - Jan1-Jan3,    !- Schedule:Week Name 1
  1,                                      !- Start Month 1
  1,                                      !- Start Day 1
  1,                                      !- End Month 1
  3,                                      !- End Day 1
  EQUIPMENT_SCH Week Rule - Jan4-Dec31,   !- Schedule:Week Name 2
  1,                                      !- Start Month 2
  4,                                      !- Start Day 2
  12,                                     !- End Month 2
  31;                                     !- End Day 2


Schedule:Compact,
  FanSpeedSchedule_v6,
  Fraction,
  Through: 12/31,
  For: AllDays,
  Until: 00:01, 0.0000,
  Until: 00:02, 0.0000,
  Until: 00:03, 0.0000,
  Until: 00:04, 0.0000,
  Until: 00:05, 0.0000,
  Until: 00:06, 0.0000,
  Until: 00:07, 0.2733,
  Until: 00:08, 0.3700,
  Until: 00:09, 0.3700,
  Until: 00:10, 0.3700,
  Until: 00:11, 0.3700,
  Until: 00:12, 0.3700,
  Until: 00:13, 0.5033,
  Until: 00:14, 0.6900,
  Until: 00:15, 0.6900,
  Until: 00:16, 0.6900,
  Until: 00:17, 0.6583,
  Until: 00:18, 0.5000,
  Until: 00:19, 0.5000,
  Until: 00:20, 0.5000,
  Until: 00:21, 0.5000,
  Until: 00:22, 0.5000,
  Until: 00:23, 0.5000,
  Until: 00:24, 0.5000,
  Until: 00:25, 0.5000,
  Until: 00:26, 0.5000,
  Until: 00:27, 0.5000,
  Until: 00:28, 0.5000,
  Until: 00:29, 0.5000,
  Until: 00:30, 0.5000,
  Until: 00:31, 0.5000,
  Until: 00:32, 0.5000,
  Until: 00:33, 0.5000,
  Until: 00:34, 0.5950,
  Until: 00:35, 0.6900,
  Until: 00:36, 0.6900,
  Until: 00:37, 0.6900,
  Until: 00:38, 0.6900,
  Until: 00:39, 0.6900,
  Until: 00:40, 0.6900,
  Until: 00:41, 0.6900,
  Until: 00:42, 0.6900,
  Until: 00:43, 0.6900,
  Until: 00:44, 0.6900,
  Until: 00:45, 0.6900,
  Until: 00:46, 0.6900,
  Until: 00:47, 0.6900,
  Until: 00:48, 0.6900,
  Until: 00:49, 0.6900,
  Until: 00:50, 0.6900,
  Until: 00:51, 0.5900,
  Until: 00:52, 0.5400,
  Until: 00:53, 0.5400,
  Until: 00:54, 0.5400,
  Until: 00:55, 0.5400,
  Until: 00:56, 0.5400,
  Until: 00:57, 0.3150,
  Until: 00:58, 0.6258,
  Until: 00:59, 0.6000,
  Until: 00:60, 0.6000,
  Until: 01:01, 0.6000,
  Until: 01:02, 0.6000,
  Until: 01:03, 0.6000,
  Until: 01:04, 0.6000,
  Until: 01:05, 0.5958,
  Until: 01:06, 0.5500,
  Until: 01:07, 0.5500,
  Until: 01:08, 0.5500,
  Until: 01:09, 0.5500,
  Until: 01:10, 0.5500,
  Until: 01:11, 0.5500,
  Until: 01:12, 0.5500,
  Until: 01:13, 0.5500,
  Until: 01:14, 0.5500,
  Until: 01:15, 0.5500,
  Until: 01:16, 0.5500,
  Until: 01:17, 0.5500,
  Until: 01:18, 0.5500,
  Until: 01:19, 0.5500,
  Until: 01:20, 0.6550,
  Until: 01:21, 0.6900,
  Until: 01:22, 0.6900,
  Until: 01:23, 0.6900,
  Until: 01:24, 0.6900,
  Until: 01:25, 0.6900,
  Until: 01:26, 0.6900,
  Until: 01:27, 0.6900,
  Until: 01:28, 0.6900,
  Until: 01:29, 0.6900,
  Until: 01:30, 0.6900,
  Until: 01:31, 0.6900,
  Until: 01:32, 0.6900,
  Until: 01:33, 0.6900,
  Until: 01:34, 0.6900,
  Until: 01:35, 0.6900,
  Until: 01:36, 0.6900,
  Until: 01:37, 0.5458,
  Until: 01:38, 0.5400,
  Until: 01:39, 0.5400,
  Until: 01:40, 0.5400,
  Until: 01:41, 0.5400,
  Until: 01:42, 0.5400,
  Until: 01:43, 0.3617,
  Until: 01:44, 0.5500,
  Until: 01:45, 0.5167,
  Until: 01:46, 0.5000,
  Until: 01:47, 0.5000,
  Until: 01:48, 0.5000,
  Until: 01:49, 0.5000,
  Until: 01:50, 0.5000,
  Until: 01:51, 0.5000,
  Until: 01:52, 0.5000,
  Until: 01:53, 0.5000,
  Until: 01:54, 0.5000,
  Until: 01:55, 0.5000,
  Until: 01:56, 0.5000,
  Until: 01:57, 0.5000,
  Until: 01:58, 0.5000,
  Until: 01:59, 0.5000,
  Until: 01:60, 0.5000,
  Until: 02:01, 0.5000,
  Until: 02:02, 0.6900,
  Until: 02:03, 0.6900,
  Until: 02:04, 0.6900,
  Until: 02:05, 0.6900,
  Until: 02:06, 0.6900,
  Until: 02:07, 0.6900,
  Until: 02:08, 0.6900,
  Until: 02:09, 0.6900,
  Until: 02:10, 0.6900,
  Until: 02:11, 0.6900,
  Until: 02:12, 0.3400,
  Until: 02:13, 0.3400,
  Until: 02:14, 0.3400,
  Until: 02:15, 0.3400,
  Until: 02:16, 0.3400,
  Until: 02:17, 0.3400,
  Until: 02:18, 0.3925,
  Until: 02:19, 0.5500,
  Until: 02:20, 0.5500,
  Until: 02:21, 0.5500,
  Until: 02:22, 0.5500,
  Until: 02:23, 0.5500,
  Until: 02:24, 0.5500,
  Until: 02:25, 0.5500,
  Until: 02:26, 0.5500,
  Until: 02:27, 0.5500,
  Until: 02:28, 0.5500,
  Until: 02:29, 0.5500,
  Until: 02:30, 0.5500,
  Until: 02:31, 0.5500,
  Until: 02:32, 0.5500,
  Until: 02:33, 0.6783,
  Until: 02:34, 0.6900,
  Until: 02:35, 0.6900,
  Until: 02:36, 0.6900,
  Until: 02:37, 0.6900,
  Until: 02:38, 0.6900,
  Until: 02:39, 0.6900,
  Until: 02:40, 0.6900,
  Until: 02:41, 0.6900,
  Until: 02:42, 0.6900,
  Until: 02:43, 0.6900,
  Until: 02:44, 0.6900,
  Until: 02:45, 0.6900,
  Until: 02:46, 0.6900,
  Until: 02:47, 0.6900,
  Until: 02:48, 0.6900,
  Until: 02:49, 0.6825,
  Until: 02:50, 0.6000,
  Until: 02:51, 0.6000,
  Until: 02:52, 0.6000,
  Until: 02:53, 0.6000,
  Until: 02:54, 0.6000,
  Until: 02:55, 0.6000,
  Until: 02:56, 0.6000,
  Until: 02:57, 0.6000,
  Until: 02:58, 0.6000,
  Until: 02:59, 0.6000,
  Until: 02:60, 0.6000,
  Until: 03:01, 0.6000,
  Until: 03:02, 0.6000,
  Until: 03:03, 0.6000,
  Until: 03:04, 0.5708,
  Until: 03:05, 0.5500,
  Until: 03:06, 0.5500,
  Until: 03:07, 0.5500,
  Until: 03:08, 0.0917,
  Until: 03:09, 0.0917,
  Until: 03:10, 0.5500,
  Until: 03:11, 0.5500,
  Until: 03:12, 0.5967,
  Until: 03:13, 0.6900,
  Until: 03:14, 0.6900,
  Until: 03:15, 0.6900,
  Until: 03:16, 0.6900,
  Until: 03:17, 0.6900,
  Until: 03:18, 0.6900,
  Until: 03:19, 0.6900,
  Until: 03:20, 0.6900,
  Until: 03:21, 0.6900,
  Until: 03:22, 0.6900,
  Until: 03:23, 0.6900,
  Until: 03:24, 0.6900,
  Until: 03:25, 0.6900,
  Until: 03:26, 0.6900,
  Until: 03:27, 0.6900,
  Until: 03:28, 0.6900,
  Until: 03:29, 0.5950,
  Until: 03:30, 0.5000,
  Until: 03:31, 0.5000,
  Until: 03:32, 0.5000,
  Until: 03:33, 0.5000,
  Until: 03:34, 0.5000,
  Until: 03:35, 0.5000,
  Until: 03:36, 0.5000,
  Until: 03:37, 0.5000,
  Until: 03:38, 0.5000,
  Until: 03:39, 0.5000,
  Until: 03:40, 0.5000,
  Until: 03:41, 0.5000,
  Until: 03:42, 0.5000,
  Until: 03:43, 0.5000,
  Until: 03:44, 0.5000,
  Until: 03:45, 0.5000,
  Until: 03:46, 0.0833,
  Until: 03:47, 0.4583,
  Until: 03:48, 0.5500,
  Until: 03:49, 0.5500,
  Until: 03:50, 0.5500,
  Until: 03:51, 0.5500,
  Until: 03:52, 0.5500,
  Until: 03:53, 0.5500,
  Until: 03:54, 0.5500,
  Until: 03:55, 0.5500,
  Until: 03:56, 0.5500,
  Until: 03:57, 0.5500,
  Until: 03:58, 0.5500,
  Until: 03:59, 0.5500,
  Until: 03:60, 0.4625,
  Until: 04:01, 0.3400,
  Until: 04:02, 0.3400,
  Until: 04:03, 0.3400,
  Until: 04:04, 0.3400,
  Until: 04:05, 0.3400,
  Until: 04:06, 0.3400,
  Until: 04:07, 0.3400,
  Until: 04:08, 0.3400,
  Until: 04:09, 0.3400,
  Until: 04:10, 0.3400,
  Until: 04:11, 0.3400,
  Until: 04:12, 0.4292,
  Until: 04:13, 0.5000,
  Until: 04:14, 0.5000,
  Until: 04:15, 0.5417,
  Until: 04:16, 0.8350,
  Until: 04:17, 0.6200,
  Until: 04:18, 0.5400,
  Until: 04:19, 0.5400,
  Until: 04:20, 0.5400,
  Until: 04:21, 0.5400,
  Until: 04:22, 0.5400,
  Until: 04:23, 0.5400,
  Until: 04:24, 0.5400,
  Until: 04:25, 0.5400,
  Until: 04:26, 0.5400,
  Until: 04:27, 0.5400,
  Until: 04:28, 0.5400,
  Until: 04:29, 0.5400,
  Until: 04:30, 0.5400,
  Until: 04:31, 0.5525,
  Until: 04:32, 0.6900,
  Until: 04:33, 0.6900,
  Until: 04:34, 0.6900,
  Until: 04:35, 0.6900,
  Until: 04:36, 0.6900,
  Until: 04:37, 0.6900,
  Until: 04:38, 0.6900,
  Until: 04:39, 0.6900,
  Until: 04:40, 0.6900,
  Until: 04:41, 0.6900,
  Until: 04:42, 0.6900,
  Until: 04:43, 0.6900,
  Until: 04:44, 0.6900,
  Until: 04:45, 0.6900,
  Until: 04:46, 0.6900,
  Until: 04:47, 0.6900,
  Until: 04:48, 0.6425,
  Until: 04:49, 0.5000,
  Until: 04:50, 0.5000,
  Until: 04:51, 0.5000,
  Until: 04:52, 0.5000,
  Until: 04:53, 0.5000,
  Until: 04:54, 0.5000,
  Until: 04:55, 0.5000,
  Until: 04:56, 0.5000,
  Until: 04:57, 0.5000,
  Until: 04:58, 0.5000,
  Until: 04:59, 0.5000,
  Until: 04:60, 0.5000,
  Until: 05:01, 0.5000,
  Until: 05:02, 0.5000,
  Until: 05:03, 0.5000,
  Until: 05:04, 0.5000,
  Until: 05:05, 0.5292,
  Until: 05:06, 0.5500,
  Until: 05:07, 0.5500,
  Until: 05:08, 0.5500,
  Until: 05:09, 0.5500,
  Until: 05:10, 0.5500,
  Until: 05:11, 0.5500,
  Until: 05:12, 0.5500,
  Until: 05:13, 0.5967,
  Until: 05:14, 0.6900,
  Until: 05:15, 0.6900,
  Until: 05:16, 0.6900,
  Until: 05:17, 0.6900,
  Until: 05:18, 0.6900,
  Until: 05:19, 0.6900,
  Until: 05:20, 0.6900,
  Until: 05:21, 0.6900,
  Until: 05:22, 0.6900,
  Until: 05:23, 0.6900,
  Until: 05:24, 0.6900,
  Until: 05:25, 0.6900,
  Until: 05:26, 0.6900,
  Until: 05:27, 0.6900,
  Until: 05:28, 0.6900,
  Until: 05:29, 0.6900,
  Until: 05:30, 0.6200,
  Until: 05:31, 0.5500,
  Until: 05:32, 0.5500,
  Until: 05:33, 0.5500,
  Until: 05:34, 0.5500,
  Until: 05:35, 0.5500,
  Until: 05:36, 0.5500,
  Until: 05:37, 0.5500,
  Until: 05:38, 0.5500,
  Until: 05:39, 0.5500,
  Until: 05:40, 0.5500,
  Until: 05:41, 0.5500,
  Until: 05:42, 0.5500,
  Until: 05:43, 0.5500,
  Until: 05:44, 0.5583,
  Until: 05:45, 0.6000,
  Until: 05:46, 0.6000,
  Until: 05:47, 0.6000,
  Until: 05:48, 0.6000,
  Until: 05:49, 0.6000,
  Until: 05:50, 0.6000,
  Until: 05:51, 0.6000,
  Until: 05:52, 0.6000,
  Until: 05:53, 0.6000,
  Until: 05:54, 0.6000,
  Until: 05:55, 0.6000,
  Until: 05:56, 0.6000,
  Until: 05:57, 0.6000,
  Until: 05:58, 0.6000,
  Until: 05:59, 0.6600,
  Until: 05:60, 0.6900,
  Until: 06:01, 0.6900,
  Until: 06:02, 0.6900,
  Until: 06:03, 0.6900,
  Until: 06:04, 0.6900,
  Until: 06:05, 0.6900,
  Until: 06:06, 0.6900,
  Until: 06:07, 0.6900,
  Until: 06:08, 0.6900,
  Until: 06:09, 0.6900,
  Until: 06:10, 0.6900,
  Until: 06:11, 0.6900,
  Until: 06:12, 0.6900,
  Until: 06:13, 0.6900,
  Until: 06:14, 0.6900,
  Until: 06:15, 0.6900,
  Until: 06:16, 0.5317,
  Until: 06:17, 0.5000,
  Until: 06:18, 0.5000,
  Until: 06:19, 0.5000,
  Until: 06:20, 0.5000,
  Until: 06:21, 0.5000,
  Until: 06:22, 0.5000,
  Until: 06:23, 0.5000,
  Until: 06:24, 0.5000,
  Until: 06:25, 0.5000,
  Until: 06:26, 0.5000,
  Until: 06:27, 0.5000,
  Until: 06:28, 0.5000,
  Until: 06:29, 0.5000,
  Until: 06:30, 0.5000,
  Until: 06:31, 0.5000,
  Until: 06:32, 0.5083,
  Until: 06:33, 0.5500,
  Until: 06:34, 0.5500,
  Until: 06:35, 0.5500,
  Until: 06:36, 0.5500,
  Until: 06:37, 0.5500,
  Until: 06:38, 0.5500,
  Until: 06:39, 0.5500,
  Until: 06:40, 0.5500,
  Until: 06:41, 0.5500,
  Until: 06:42, 0.5500,
  Until: 06:43, 0.5500,
  Until: 06:44, 0.5500,
  Until: 06:45, 0.5500,
  Until: 06:46, 0.5500,
  Until: 06:47, 0.5917,
  Until: 06:48, 0.6000,
  Until: 06:49, 0.6000,
  Until: 06:50, 0.6000,
  Until: 06:51, 0.6000,
  Until: 06:52, 0.6000,
  Until: 06:53, 0.6000,
  Until: 06:54, 0.6000,
  Until: 06:55, 0.6000,
  Until: 06:56, 0.6000,
  Until: 06:57, 0.6000,
  Until: 06:58, 0.6000,
  Until: 06:59, 0.6000,
  Until: 06:60, 0.6000,
  Until: 07:01, 0.6000,
  Until: 07:02, 0.6000,
  Until: 07:03, 0.6000,
  Until: 07:04, 0.6000,
  Until: 07:05, 0.6000,
  Until: 07:06, 0.6000,
  Until: 07:07, 0.6000,
  Until: 07:08, 0.6000,
  Until: 07:09, 0.6000,
  Until: 07:10, 0.6000,
  Until: 07:11, 0.6000,
  Until: 07:12, 0.6000,
  Until: 07:13, 0.6000,
  Until: 07:14, 0.6000,
  Until: 07:15, 0.6000,
  Until: 07:16, 0.6000,
  Until: 07:17, 0.6000,
  Until: 07:18, 0.6000,
  Until: 07:19, 0.6000,
  Until: 07:20, 0.6000,
  Until: 07:21, 0.6000,
  Until: 07:22, 0.6000,
  Until: 07:23, 0.6000,
  Until: 07:24, 0.6000,
  Until: 07:25, 0.6000,
  Until: 07:26, 0.6000,
  Until: 07:27, 0.6000,
  Until: 07:28, 0.6000,
  Until: 07:29, 0.6000,
  Until: 07:30, 0.6000,
  Until: 07:31, 0.6000,
  Until: 07:32, 0.6000,
  Until: 07:33, 0.6000,
  Until: 07:34, 0.6000,
  Until: 07:35, 0.6000,
  Until: 07:36, 0.6000,
  Until: 07:37, 0.6000,
  Until: 07:38, 0.6000,
  Until: 07:39, 0.6000,
  Until: 07:40, 0.6000,
  Until: 07:41, 0.6000,
  Until: 07:42, 0.6000,
  Until: 07:43, 0.6000,
  Until: 07:44, 0.6000,
  Until: 07:45, 0.6000,
  Until: 07:46, 0.6000,
  Until: 07:47, 0.6000,
  Until: 07:48, 0.6000,
  Until: 07:49, 0.6000,
  Until: 07:50, 0.6000,
  Until: 07:51, 0.6000,
  Until: 07:52, 0.6000,
  Until: 07:53, 0.6000,
  Until: 07:54, 0.6000,
  Until: 07:55, 0.6000,
  Until: 07:56, 0.6000,
  Until: 07:57, 0.6000,
  Until: 07:58, 0.6000,
  Until: 07:59, 0.6000,
  Until: 07:60, 0.6000,
  Until: 08:01, 0.6000,
  Until: 08:02, 0.6000,
  Until: 08:03, 0.6000,
  Until: 08:04, 0.6000,
  Until: 08:05, 0.6000,
  Until: 08:06, 0.6000,
  Until: 08:07, 0.6000,
  Until: 08:08, 0.6000,
  Until: 08:09, 0.6000,
  Until: 08:10, 0.6000,
  Until: 08:11, 0.6000,
  Until: 08:12, 0.6000,
  Until: 08:13, 0.6000,
  Until: 08:14, 0.6000,
  Until: 08:15, 0.6000,
  Until: 08:16, 0.6000,
  Until: 08:17, 0.6000,
  Until: 08:18, 0.6000,
  Until: 08:19, 0.6000,
  Until: 08:20, 0.6000,
  Until: 08:21, 0.6000,
  Until: 08:22, 0.6000,
  Until: 08:23, 0.6000,
  Until: 08:24, 0.6000,
  Until: 08:25, 0.6000,
  Until: 08:26, 0.6000,
  Until: 08:27, 0.6000,
  Until: 08:28, 0.6000,
  Until: 08:29, 0.6000,
  Until: 08:30, 0.6000,
  Until: 08:31, 0.6000,
  Until: 08:32, 0.6000,
  Until: 08:33, 0.6000,
  Until: 08:34, 0.6000,
  Until: 08:35, 0.6000,
  Until: 08:36, 0.6000,
  Until: 08:37, 0.6000,
  Until: 08:38, 0.6000,
  Until: 08:39, 0.6000,
  Until: 08:40, 0.6000,
  Until: 08:41, 0.6000,
  Until: 08:42, 0.6000,
  Until: 08:43, 0.6000,
  Until: 08:44, 0.6000,
  Until: 08:45, 0.6000,
  Until: 08:46, 0.6000,
  Until: 08:47, 0.6000,
  Until: 08:48, 0.6000,
  Until: 08:49, 0.6000,
  Until: 08:50, 0.6000,
  Until: 08:51, 0.6000,
  Until: 08:52, 0.6000,
  Until: 08:53, 0.6000,
  Until: 08:54, 0.6000,
  Until: 08:55, 0.6000,
  Until: 08:56, 0.6000,
  Until: 08:57, 0.6000,
  Until: 08:58, 0.6000,
  Until: 08:59, 0.6000,
  Until: 08:60, 0.6000,
  Until: 09:01, 0.6000,
  Until: 09:02, 0.6000,
  Until: 09:03, 0.6000,
  Until: 09:04, 0.6000,
  Until: 09:05, 0.6000,
  Until: 09:06, 0.6000,
  Until: 09:07, 0.6000,
  Until: 09:08, 0.6000,
  Until: 09:09, 0.6000,
  Until: 09:10, 0.6000,
  Until: 09:11, 0.6000,
  Until: 09:12, 0.6000,
  Until: 09:13, 0.6000,
  Until: 09:14, 0.6000,
  Until: 09:15, 0.6000,
  Until: 09:16, 0.6000,
  Until: 09:17, 0.6000,
  Until: 09:18, 0.6000,
  Until: 09:19, 0.6000,
  Until: 09:20, 0.6000,
  Until: 09:21, 0.6000,
  Until: 09:22, 0.6000,
  Until: 09:23, 0.6000,
  Until: 09:24, 0.6000,
  Until: 09:25, 0.6000,
  Until: 09:26, 0.6000,
  Until: 09:27, 0.6000,
  Until: 09:28, 0.6000,
  Until: 09:29, 0.6000,
  Until: 09:30, 0.6000,
  Until: 09:31, 0.6000,
  Until: 09:32, 0.6000,
  Until: 09:33, 0.6000,
  Until: 09:34, 0.6000,
  Until: 09:35, 0.6000,
  Until: 09:36, 0.6000,
  Until: 09:37, 0.6000,
  Until: 09:38, 0.6000,
  Until: 09:39, 0.6000,
  Until: 09:40, 0.6000,
  Until: 09:41, 0.6000,
  Until: 09:42, 0.6000,
  Until: 09:43, 0.6000,
  Until: 09:44, 0.6000,
  Until: 09:45, 0.6000,
  Until: 09:46, 0.6000,
  Until: 09:47, 0.6000,
  Until: 09:48, 0.6000,
  Until: 09:49, 0.6000,
  Until: 09:50, 0.6000,
  Until: 09:51, 0.6000,
  Until: 09:52, 0.6000,
  Until: 09:53, 0.6000,
  Until: 09:54, 0.6000,
  Until: 09:55, 0.6000,
  Until: 09:56, 0.6000,
  Until: 09:57, 0.6000,
  Until: 09:58, 0.6000,
  Until: 09:59, 0.6000,
  Until: 09:60, 0.6000,
  Until: 10:01, 0.6000,
  Until: 10:02, 0.6000,
  Until: 10:03, 0.6000,
  Until: 10:04, 0.6000,
  Until: 10:05, 0.6000,
  Until: 10:06, 0.6000,
  Until: 10:07, 0.6000,
  Until: 10:08, 0.6000,
  Until: 10:09, 0.6000,
  Until: 10:10, 0.6000,
  Until: 10:11, 0.6000,
  Until: 10:12, 0.6000,
  Until: 10:13, 0.6000,
  Until: 10:14, 0.6000,
  Until: 10:15, 0.6000,
  Until: 10:16, 0.6000,
  Until: 10:17, 0.6000,
  Until: 10:18, 0.6000,
  Until: 10:19, 0.6000,
  Until: 10:20, 0.6000,
  Until: 10:21, 0.6000,
  Until: 10:22, 0.6000,
  Until: 10:23, 0.6000,
  Until: 10:24, 0.6000,
  Until: 10:25, 0.6000,
  Until: 10:26, 0.6000,
  Until: 10:27, 0.6000,
  Until: 10:28, 0.6000,
  Until: 10:29, 0.6000,
  Until: 10:30, 0.6000,
  Until: 10:31, 0.6000,
  Until: 10:32, 0.6000,
  Until: 10:33, 0.6000,
  Until: 10:34, 0.6000,
  Until: 10:35, 0.6000,
  Until: 10:36, 0.6000,
  Until: 10:37, 0.6000,
  Until: 10:38, 0.6000,
  Until: 10:39, 0.6000,
  Until: 10:40, 0.6000,
  Until: 10:41, 0.6000,
  Until: 10:42, 0.6000,
  Until: 10:43, 0.6000,
  Until: 10:44, 0.6000,
  Until: 10:45, 0.6000,
  Until: 10:46, 0.6000,
  Until: 10:47, 0.6000,
  Until: 10:48, 0.6000,
  Until: 10:49, 0.6000,
  Until: 10:50, 0.6000,
  Until: 10:51, 0.6000,
  Until: 10:52, 0.6000,
  Until: 10:53, 0.6000,
  Until: 10:54, 0.6000,
  Until: 10:55, 0.6000,
  Until: 10:56, 0.6000,
  Until: 10:57, 0.6000,
  Until: 10:58, 0.6000,
  Until: 10:59, 0.6000,
  Until: 10:60, 0.6000,
  Until: 11:01, 0.6000,
  Until: 11:02, 0.6000,
  Until: 11:03, 0.6000,
  Until: 11:04, 0.6000,
  Until: 11:05, 0.6000,
  Until: 11:06, 0.6000,
  Until: 11:07, 0.6000,
  Until: 11:08, 0.6000,
  Until: 11:09, 0.6000,
  Until: 11:10, 0.6000,
  Until: 11:11, 0.6000,
  Until: 11:12, 0.6000,
  Until: 11:13, 0.6000,
  Until: 11:14, 0.6000,
  Until: 11:15, 0.6000,
  Until: 11:16, 0.6000,
  Until: 11:17, 0.6000,
  Until: 11:18, 0.6000,
  Until: 11:19, 0.6000,
  Until: 11:20, 0.6000,
  Until: 11:21, 0.6000,
  Until: 11:22, 0.6000,
  Until: 11:23, 0.6000,
  Until: 11:24, 0.6000,
  Until: 11:25, 0.6000,
  Until: 11:26, 0.6000,
  Until: 11:27, 0.6000,
  Until: 11:28, 0.6000,
  Until: 11:29, 0.6000,
  Until: 11:30, 0.6000,
  Until: 11:31, 0.6000,
  Until: 11:32, 0.6000,
  Until: 11:33, 0.6000,
  Until: 11:34, 0.6000,
  Until: 11:35, 0.6000,
  Until: 11:36, 0.6000,
  Until: 11:37, 0.6000,
  Until: 11:38, 0.6000,
  Until: 11:39, 0.6000,
  Until: 11:40, 0.6000,
  Until: 11:41, 0.6000,
  Until: 11:42, 0.6000,
  Until: 11:43, 0.6000,
  Until: 11:44, 0.6000,
  Until: 11:45, 0.6000,
  Until: 11:46, 0.6000,
  Until: 11:47, 0.6000,
  Until: 11:48, 0.6000,
  Until: 11:49, 0.6000,
  Until: 11:50, 0.6000,
  Until: 11:51, 0.6000,
  Until: 11:52, 0.6000,
  Until: 11:53, 0.6000,
  Until: 11:54, 0.6000,
  Until: 11:55, 0.6000,
  Until: 11:56, 0.6000,
  Until: 11:57, 0.6000,
  Until: 11:58, 0.6000,
  Until: 11:59, 0.6000,
  Until: 11:60, 0.6000,
  Until: 12:01, 0.6000,
  Until: 12:02, 0.6000,
  Until: 12:03, 0.6000,
  Until: 12:04, 0.6000,
  Until: 12:05, 0.6000,
  Until: 12:06, 0.6000,
  Until: 12:07, 0.6000,
  Until: 12:08, 0.6000,
  Until: 12:09, 0.6000,
  Until: 12:10, 0.6000,
  Until: 12:11, 0.6000,
  Until: 12:12, 0.6000,
  Until: 12:13, 0.6000,
  Until: 12:14, 0.6000,
  Until: 12:15, 0.6000,
  Until: 12:16, 0.6000,
  Until: 12:17, 0.6000,
  Until: 12:18, 0.6000,
  Until: 12:19, 0.6000,
  Until: 12:20, 0.6000,
  Until: 12:21, 0.6000,
  Until: 12:22, 0.6000,
  Until: 12:23, 0.6000,
  Until: 12:24, 0.6000,
  Until: 12:25, 0.6000,
  Until: 12:26, 0.6000,
  Until: 12:27, 0.6000,
  Until: 12:28, 0.6000,
  Until: 12:29, 0.6000,
  Until: 12:30, 0.6000,
  Until: 12:31, 0.6000,
  Until: 12:32, 0.6000,
  Until: 12:33, 0.6000,
  Until: 12:34, 0.6000,
  Until: 12:35, 0.6000,
  Until: 12:36, 0.6000,
  Until: 12:37, 0.6000,
  Until: 12:38, 0.6000,
  Until: 12:39, 0.6000,
  Until: 12:40, 0.6000,
  Until: 12:41, 0.6000,
  Until: 12:42, 0.6000,
  Until: 12:43, 0.6000,
  Until: 12:44, 0.6000,
  Until: 12:45, 0.6000,
  Until: 12:46, 0.6000,
  Until: 12:47, 0.6000,
  Until: 12:48, 0.6000,
  Until: 12:49, 0.6000,
  Until: 12:50, 0.6000,
  Until: 12:51, 0.6000,
  Until: 12:52, 0.6000,
  Until: 12:53, 0.6000,
  Until: 12:54, 0.6000,
  Until: 12:55, 0.6000,
  Until: 12:56, 0.6000,
  Until: 12:57, 0.6000,
  Until: 12:58, 0.6000,
  Until: 12:59, 0.6000,
  Until: 12:60, 0.6000,
  Until: 13:01, 0.6000,
  Until: 13:02, 0.6000,
  Until: 13:03, 0.6000,
  Until: 13:04, 0.6000,
  Until: 13:05, 0.6000,
  Until: 13:06, 0.6000,
  Until: 13:07, 0.6000,
  Until: 13:08, 0.6000,
  Until: 13:09, 0.6000,
  Until: 13:10, 0.6000,
  Until: 13:11, 0.6000,
  Until: 13:12, 0.6000,
  Until: 13:13, 0.6000,
  Until: 13:14, 0.6000,
  Until: 13:15, 0.6000,
  Until: 13:16, 0.6000,
  Until: 13:17, 0.6000,
  Until: 13:18, 0.6000,
  Until: 13:19, 0.6000,
  Until: 13:20, 0.6000,
  Until: 13:21, 0.6000,
  Until: 13:22, 0.6000,
  Until: 13:23, 0.6000,
  Until: 13:24, 0.6000,
  Until: 13:25, 0.6000,
  Until: 13:26, 0.6000,
  Until: 13:27, 0.6000,
  Until: 13:28, 0.6000,
  Until: 13:29, 0.6000,
  Until: 13:30, 0.6000,
  Until: 13:31, 0.6000,
  Until: 13:32, 0.6000,
  Until: 13:33, 0.6000,
  Until: 13:34, 0.6000,
  Until: 13:35, 0.6000,
  Until: 13:36, 0.6000,
  Until: 13:37, 0.6000,
  Until: 13:38, 0.6000,
  Until: 13:39, 0.6000,
  Until: 13:40, 0.6000,
  Until: 13:41, 0.6000,
  Until: 13:42, 0.6000,
  Until: 13:43, 0.6000,
  Until: 13:44, 0.6000,
  Until: 13:45, 0.6000,
  Until: 13:46, 0.6000,
  Until: 13:47, 0.6000,
  Until: 13:48, 0.6000,
  Until: 13:49, 0.6000,
  Until: 13:50, 0.6000,
  Until: 13:51, 0.6000,
  Until: 13:52, 0.6000,
  Until: 13:53, 0.6000,
  Until: 13:54, 0.6000,
  Until: 13:55, 0.6000,
  Until: 13:56, 0.6000,
  Until: 13:57, 0.6000,
  Until: 13:58, 0.6000,
  Until: 13:59, 0.6000,
  Until: 13:60, 0.6000,
  Until: 14:01, 0.6000,
  Until: 14:02, 0.6000,
  Until: 14:03, 0.6000,
  Until: 14:04, 0.6000,
  Until: 14:05, 0.6000,
  Until: 14:06, 0.6000,
  Until: 14:07, 0.6000,
  Until: 14:08, 0.6000,
  Until: 14:09, 0.6000,
  Until: 14:10, 0.6000,
  Until: 14:11, 0.6000,
  Until: 14:12, 0.6000,
  Until: 14:13, 0.6000,
  Until: 14:14, 0.6000,
  Until: 14:15, 0.6000,
  Until: 14:16, 0.6000,
  Until: 14:17, 0.6000,
  Until: 14:18, 0.6000,
  Until: 14:19, 0.6000,
  Until: 14:20, 0.6000,
  Until: 14:21, 0.6000,
  Until: 14:22, 0.6000,
  Until: 14:23, 0.6000,
  Until: 14:24, 0.6000,
  Until: 14:25, 0.6000,
  Until: 14:26, 0.6000,
  Until: 14:27, 0.6000,
  Until: 14:28, 0.6000,
  Until: 14:29, 0.6000,
  Until: 14:30, 0.6000,
  Until: 14:31, 0.6000,
  Until: 14:32, 0.6000,
  Until: 14:33, 0.6000,
  Until: 14:34, 0.6000,
  Until: 14:35, 0.6000,
  Until: 14:36, 0.6000,
  Until: 14:37, 0.6000,
  Until: 14:38, 0.6000,
  Until: 14:39, 0.6000,
  Until: 14:40, 0.6000,
  Until: 14:41, 0.6000,
  Until: 14:42, 0.6000,
  Until: 14:43, 0.6000,
  Until: 14:44, 0.6000,
  Until: 14:45, 0.6000,
  Until: 14:46, 0.6000,
  Until: 14:47, 0.6000,
  Until: 14:48, 0.6000,
  Until: 14:49, 0.6000,
  Until: 14:50, 0.6000,
  Until: 14:51, 0.6000,
  Until: 14:52, 0.6000,
  Until: 14:53, 0.6000,
  Until: 14:54, 0.6000,
  Until: 14:55, 0.6000,
  Until: 14:56, 0.6000,
  Until: 14:57, 0.6000,
  Until: 14:58, 0.6000,
  Until: 14:59, 0.6000,
  Until: 14:60, 0.6000,
  Until: 15:01, 0.6000,
  Until: 15:02, 0.6000,
  Until: 15:03, 0.6000,
  Until: 15:04, 0.6000,
  Until: 15:05, 0.6000,
  Until: 15:06, 0.6000,
  Until: 15:07, 0.6000,
  Until: 15:08, 0.6000,
  Until: 15:09, 0.6000,
  Until: 15:10, 0.6000,
  Until: 15:11, 0.6000,
  Until: 15:12, 0.6000,
  Until: 15:13, 0.6000,
  Until: 15:14, 0.6000,
  Until: 15:15, 0.6000,
  Until: 15:16, 0.6000,
  Until: 15:17, 0.6000,
  Until: 15:18, 0.6000,
  Until: 15:19, 0.6000,
  Until: 15:20, 0.6000,
  Until: 15:21, 0.6000,
  Until: 15:22, 0.6000,
  Until: 15:23, 0.6000,
  Until: 15:24, 0.6000,
  Until: 15:25, 0.6000,
  Until: 15:26, 0.6000,
  Until: 15:27, 0.6000,
  Until: 15:28, 0.6000,
  Until: 15:29, 0.6000,
  Until: 15:30, 0.6000,
  Until: 15:31, 0.6000,
  Until: 15:32, 0.6000,
  Until: 15:33, 0.6000,
  Until: 15:34, 0.6000,
  Until: 15:35, 0.6000,
  Until: 15:36, 0.6000,
  Until: 15:37, 0.6000,
  Until: 15:38, 0.6000,
  Until: 15:39, 0.6000,
  Until: 15:40, 0.6000,
  Until: 15:41, 0.6000,
  Until: 15:42, 0.6000,
  Until: 15:43, 0.6000,
  Until: 15:44, 0.6000,
  Until: 15:45, 0.6000,
  Until: 15:46, 0.6000,
  Until: 15:47, 0.6000,
  Until: 15:48, 0.6000,
  Until: 15:49, 0.6000,
  Until: 15:50, 0.6000,
  Until: 15:51, 0.6000,
  Until: 15:52, 0.6000,
  Until: 15:53, 0.6000,
  Until: 15:54, 0.6000,
  Until: 15:55, 0.6000,
  Until: 15:56, 0.6000,
  Until: 15:57, 0.6000,
  Until: 15:58, 0.6000,
  Until: 15:59, 0.6000,
  Until: 15:60, 0.6000,
  Until: 16:01, 0.6000,
  Until: 16:02, 0.6000,
  Until: 16:03, 0.6000,
  Until: 16:04, 0.6000,
  Until: 16:05, 0.6000,
  Until: 16:06, 0.6000,
  Until: 16:07, 0.6000,
  Until: 16:08, 0.6000,
  Until: 16:09, 0.6000,
  Until: 16:10, 0.6000,
  Until: 16:11, 0.6000,
  Until: 16:12, 0.6000,
  Until: 16:13, 0.6000,
  Until: 16:14, 0.6000,
  Until: 16:15, 0.6000,
  Until: 16:16, 0.6000,
  Until: 16:17, 0.6000,
  Until: 16:18, 0.6000,
  Until: 16:19, 0.6000,
  Until: 16:20, 0.6000,
  Until: 16:21, 0.6000,
  Until: 16:22, 0.6000,
  Until: 16:23, 0.6000,
  Until: 16:24, 0.6000,
  Until: 16:25, 0.6000,
  Until: 16:26, 0.6000,
  Until: 16:27, 0.6000,
  Until: 16:28, 0.6000,
  Until: 16:29, 0.6000,
  Until: 16:30, 0.6000,
  Until: 16:31, 0.6000,
  Until: 16:32, 0.6000,
  Until: 16:33, 0.6000,
  Until: 16:34, 0.6000,
  Until: 16:35, 0.6000,
  Until: 16:36, 0.6000,
  Until: 16:37, 0.6000,
  Until: 16:38, 0.6000,
  Until: 16:39, 0.6000,
  Until: 16:40, 0.6000,
  Until: 16:41, 0.6000,
  Until: 16:42, 0.6000,
  Until: 16:43, 0.6000,
  Until: 16:44, 0.6000,
  Until: 16:45, 0.6000,
  Until: 16:46, 0.6000,
  Until: 16:47, 0.6000,
  Until: 16:48, 0.6000,
  Until: 16:49, 0.6000,
  Until: 16:50, 0.6000,
  Until: 16:51, 0.6000,
  Until: 16:52, 0.6000,
  Until: 16:53, 0.6000,
  Until: 16:54, 0.6000,
  Until: 16:55, 0.6000,
  Until: 16:56, 0.6000,
  Until: 16:57, 0.6000,
  Until: 16:58, 0.6000,
  Until: 16:59, 0.6000,
  Until: 16:60, 0.6000,
  Until: 17:01, 0.6000,
  Until: 17:02, 0.6000,
  Until: 17:03, 0.6000,
  Until: 17:04, 0.6000,
  Until: 17:05, 0.6000,
  Until: 17:06, 0.6000,
  Until: 17:07, 0.6000,
  Until: 17:08, 0.6000,
  Until: 17:09, 0.6000,
  Until: 17:10, 0.6000,
  Until: 17:11, 0.6000,
  Until: 17:12, 0.6000,
  Until: 17:13, 0.6000,
  Until: 17:14, 0.6000,
  Until: 17:15, 0.6000,
  Until: 17:16, 0.6000,
  Until: 17:17, 0.6000,
  Until: 17:18, 0.6000,
  Until: 17:19, 0.6000,
  Until: 17:20, 0.6000,
  Until: 17:21, 0.6000,
  Until: 17:22, 0.6000,
  Until: 17:23, 0.6000,
  Until: 17:24, 0.6000,
  Until: 17:25, 0.6000,
  Until: 17:26, 0.6000,
  Until: 17:27, 0.6000,
  Until: 17:28, 0.6000,
  Until: 17:29, 0.6000,
  Until: 17:30, 0.6000,
  Until: 17:31, 0.6000,
  Until: 17:32, 0.6000,
  Until: 17:33, 0.6000,
  Until: 17:34, 0.6000,
  Until: 17:35, 0.6000,
  Until: 17:36, 0.6000,
  Until: 17:37, 0.6000,
  Until: 17:38, 0.6000,
  Until: 17:39, 0.6000,
  Until: 17:40, 0.6000,
  Until: 17:41, 0.6000,
  Until: 17:42, 0.6000,
  Until: 17:43, 0.6000,
  Until: 17:44, 0.6000,
  Until: 17:45, 0.6000,
  Until: 17:46, 0.6000,
  Until: 17:47, 0.6000,
  Until: 17:48, 0.6000,
  Until: 17:49, 0.6000,
  Until: 17:50, 0.6000,
  Until: 17:51, 0.6000,
  Until: 17:52, 0.6000,
  Until: 17:53, 0.6000,
  Until: 17:54, 0.6000,
  Until: 17:55, 0.6000,
  Until: 17:56, 0.6000,
  Until: 17:57, 0.6000,
  Until: 17:58, 0.6000,
  Until: 17:59, 0.6000,
  Until: 17:60, 0.6000,
  Until: 18:01, 0.6000,
  Until: 18:02, 0.6000,
  Until: 18:03, 0.6000,
  Until: 18:04, 0.6000,
  Until: 18:05, 0.6000,
  Until: 18:06, 0.6000,
  Until: 18:07, 0.6000,
  Until: 18:08, 0.6000,
  Until: 18:09, 0.6000,
  Until: 18:10, 0.6000,
  Until: 18:11, 0.6000,
  Until: 18:12, 0.6000,
  Until: 18:13, 0.6000,
  Until: 18:14, 0.6000,
  Until: 18:15, 0.6000,
  Until: 18:16, 0.6000,
  Until: 18:17, 0.6000,
  Until: 18:18, 0.6000,
  Until: 18:19, 0.6000,
  Until: 18:20, 0.6000,
  Until: 18:21, 0.6000,
  Until: 18:22, 0.6000,
  Until: 18:23, 0.6000,
  Until: 18:24, 0.6000,
  Until: 18:25, 0.6000,
  Until: 18:26, 0.6000,
  Until: 18:27, 0.6000,
  Until: 18:28, 0.6000,
  Until: 18:29, 0.6000,
  Until: 18:30, 0.6000,
  Until: 18:31, 0.6000,
  Until: 18:32, 0.6000,
  Until: 18:33, 0.6000,
  Until: 18:34, 0.6000,
  Until: 18:35, 0.6000,
  Until: 18:36, 0.6000,
  Until: 18:37, 0.6000,
  Until: 18:38, 0.6000,
  Until: 18:39, 0.6000,
  Until: 18:40, 0.6000,
  Until: 18:41, 0.6000,
  Until: 18:42, 0.6000,
  Until: 18:43, 0.6000,
  Until: 18:44, 0.6000,
  Until: 18:45, 0.6000,
  Until: 18:46, 0.6000,
  Until: 18:47, 0.6000,
  Until: 18:48, 0.6000,
  Until: 18:49, 0.6000,
  Until: 18:50, 0.6000,
  Until: 18:51, 0.6000,
  Until: 18:52, 0.6000,
  Until: 18:53, 0.6000,
  Until: 18:54, 0.6000,
  Until: 18:55, 0.6000,
  Until: 18:56, 0.6000,
  Until: 18:57, 0.6000,
  Until: 18:58, 0.6000,
  Until: 18:59, 0.6000,
  Until: 18:60, 0.6000,
  Until: 19:01, 0.6000,
  Until: 19:02, 0.6000,
  Until: 19:03, 0.6000,
  Until: 19:04, 0.6000,
  Until: 19:05, 0.6000,
  Until: 19:06, 0.6000,
  Until: 19:07, 0.6000,
  Until: 19:08, 0.6000,
  Until: 19:09, 0.6000,
  Until: 19:10, 0.6000,
  Until: 19:11, 0.6000,
  Until: 19:12, 0.6000,
  Until: 19:13, 0.6000,
  Until: 19:14, 0.6000,
  Until: 19:15, 0.6000,
  Until: 19:16, 0.6000,
  Until: 19:17, 0.6000,
  Until: 19:18, 0.6000,
  Until: 19:19, 0.6000,
  Until: 19:20, 0.6000,
  Until: 19:21, 0.6000,
  Until: 19:22, 0.6000,
  Until: 19:23, 0.6000,
  Until: 19:24, 0.6000,
  Until: 19:25, 0.6000,
  Until: 19:26, 0.6000,
  Until: 19:27, 0.6000,
  Until: 19:28, 0.6000,
  Until: 19:29, 0.6000,
  Until: 19:30, 0.6000,
  Until: 19:31, 0.6000,
  Until: 19:32, 0.6000,
  Until: 19:33, 0.6000,
  Until: 19:34, 0.6000,
  Until: 19:35, 0.6000,
  Until: 19:36, 0.6000,
  Until: 19:37, 0.6000,
  Until: 19:38, 0.6000,
  Until: 19:39, 0.6000,
  Until: 19:40, 0.6000,
  Until: 19:41, 0.6000,
  Until: 19:42, 0.6000,
  Until: 19:43, 0.6000,
  Until: 19:44, 0.6000,
  Until: 19:45, 0.6000,
  Until: 19:46, 0.6000,
  Until: 19:47, 0.6000,
  Until: 19:48, 0.6000,
  Until: 19:49, 0.6000,
  Until: 19:50, 0.6000,
  Until: 19:51, 0.6000,
  Until: 19:52, 0.6000,
  Until: 19:53, 0.6000,
  Until: 19:54, 0.6000,
  Until: 19:55, 0.6000,
  Until: 19:56, 0.6000,
  Until: 19:57, 0.6000,
  Until: 19:58, 0.6000,
  Until: 19:59, 0.6000,
  Until: 19:60, 0.6000,
  Until: 20:01, 0.6000,
  Until: 20:02, 0.6000,
  Until: 20:03, 0.6000,
  Until: 20:04, 0.6000,
  Until: 20:05, 0.6000,
  Until: 20:06, 0.6000,
  Until: 20:07, 0.6000,
  Until: 20:08, 0.6000,
  Until: 20:09, 0.6000,
  Until: 20:10, 0.6000,
  Until: 20:11, 0.6000,
  Until: 20:12, 0.6000,
  Until: 20:13, 0.6000,
  Until: 20:14, 0.6000,
  Until: 20:15, 0.6000,
  Until: 20:16, 0.6000,
  Until: 20:17, 0.6000,
  Until: 20:18, 0.6000,
  Until: 20:19, 0.6000,
  Until: 20:20, 0.6000,
  Until: 20:21, 0.6000,
  Until: 20:22, 0.6000,
  Until: 20:23, 0.6000,
  Until: 20:24, 0.6000,
  Until: 20:25, 0.6000,
  Until: 20:26, 0.6000,
  Until: 20:27, 0.6000,
  Until: 20:28, 0.6000,
  Until: 20:29, 0.6000,
  Until: 20:30, 0.6000,
  Until: 20:31, 0.6000,
  Until: 20:32, 0.6000,
  Until: 20:33, 0.6000,
  Until: 20:34, 0.6000,
  Until: 20:35, 0.6000,
  Until: 20:36, 0.6000,
  Until: 20:37, 0.6000,
  Until: 20:38, 0.6000,
  Until: 20:39, 0.6000,
  Until: 20:40, 0.6000,
  Until: 20:41, 0.6000,
  Until: 20:42, 0.6000,
  Until: 20:43, 0.6000,
  Until: 20:44, 0.6000,
  Until: 20:45, 0.6000,
  Until: 20:46, 0.6000,
  Until: 20:47, 0.6000,
  Until: 20:48, 0.6000,
  Until: 20:49, 0.6000,
  Until: 20:50, 0.6000,
  Until: 20:51, 0.6000,
  Until: 20:52, 0.6000,
  Until: 20:53, 0.6000,
  Until: 20:54, 0.6000,
  Until: 20:55, 0.6000,
  Until: 20:56, 0.6000,
  Until: 20:57, 0.6000,
  Until: 20:58, 0.6000,
  Until: 20:59, 0.6000,
  Until: 20:60, 0.6000,
  Until: 21:01, 0.6000,
  Until: 21:02, 0.6000,
  Until: 21:03, 0.6000,
  Until: 21:04, 0.6000,
  Until: 21:05, 0.6000,
  Until: 21:06, 0.6000,
  Until: 21:07, 0.6000,
  Until: 21:08, 0.6000,
  Until: 21:09, 0.6000,
  Until: 21:10, 0.6000,
  Until: 21:11, 0.6000,
  Until: 21:12, 0.6000,
  Until: 21:13, 0.6000,
  Until: 21:14, 0.6000,
  Until: 21:15, 0.6000,
  Until: 21:16, 0.6000,
  Until: 21:17, 0.6000,
  Until: 21:18, 0.6000,
  Until: 21:19, 0.6000,
  Until: 21:20, 0.6000,
  Until: 21:21, 0.6000,
  Until: 21:22, 0.6000,
  Until: 21:23, 0.6000,
  Until: 21:24, 0.6000,
  Until: 21:25, 0.6000,
  Until: 21:26, 0.6000,
  Until: 21:27, 0.6000,
  Until: 21:28, 0.6000,
  Until: 21:29, 0.6000,
  Until: 21:30, 0.6000,
  Until: 21:31, 0.6000,
  Until: 21:32, 0.6000,
  Until: 21:33, 0.6000,
  Until: 21:34, 0.6000,
  Until: 21:35, 0.6000,
  Until: 21:36, 0.6000,
  Until: 21:37, 0.6000,
  Until: 21:38, 0.6000,
  Until: 21:39, 0.6000,
  Until: 21:40, 0.6000,
  Until: 21:41, 0.6000,
  Until: 21:42, 0.6000,
  Until: 21:43, 0.6000,
  Until: 21:44, 0.6000,
  Until: 21:45, 0.6000,
  Until: 21:46, 0.6000,
  Until: 21:47, 0.6000,
  Until: 21:48, 0.6000,
  Until: 21:49, 0.6000,
  Until: 21:50, 0.6000,
  Until: 21:51, 0.6000,
  Until: 21:52, 0.6000,
  Until: 21:53, 0.6000,
  Until: 21:54, 0.6000,
  Until: 21:55, 0.6000,
  Until: 21:56, 0.6000,
  Until: 21:57, 0.6000,
  Until: 21:58, 0.6000,
  Until: 21:59, 0.6000,
  Until: 21:60, 0.6000,
  Until: 22:01, 0.6000,
  Until: 22:02, 0.6000,
  Until: 22:03, 0.6000,
  Until: 22:04, 0.6000,
  Until: 22:05, 0.6000,
  Until: 22:06, 0.6000,
  Until: 22:07, 0.6000,
  Until: 22:08, 0.6000,
  Until: 22:09, 0.6000,
  Until: 22:10, 0.6000,
  Until: 22:11, 0.6000,
  Until: 22:12, 0.6000,
  Until: 22:13, 0.6000,
  Until: 22:14, 0.6000,
  Until: 22:15, 0.6000,
  Until: 22:16, 0.6000,
  Until: 22:17, 0.6000,
  Until: 22:18, 0.6000,
  Until: 22:19, 0.6000,
  Until: 22:20, 0.6000,
  Until: 22:21, 0.6000,
  Until: 22:22, 0.6000,
  Until: 22:23, 0.6000,
  Until: 22:24, 0.6000,
  Until: 22:25, 0.6000,
  Until: 22:26, 0.6000,
  Until: 22:27, 0.6000,
  Until: 22:28, 0.6000,
  Until: 22:29, 0.6000,
  Until: 22:30, 0.6000,
  Until: 22:31, 0.6000,
  Until: 22:32, 0.6000,
  Until: 22:33, 0.6000,
  Until: 22:34, 0.6000,
  Until: 22:35, 0.6000,
  Until: 22:36, 0.6000,
  Until: 22:37, 0.6000,
  Until: 22:38, 0.6000,
  Until: 22:39, 0.6000,
  Until: 22:40, 0.6000,
  Until: 22:41, 0.6000,
  Until: 22:42, 0.6000,
  Until: 22:43, 0.6000,
  Until: 22:44, 0.6000,
  Until: 22:45, 0.6000,
  Until: 22:46, 0.6000,
  Until: 22:47, 0.6000,
  Until: 22:48, 0.6000,
  Until: 22:49, 0.6000,
  Until: 22:50, 0.6000,
  Until: 22:51, 0.6000,
  Until: 22:52, 0.6000,
  Until: 22:53, 0.6000,
  Until: 22:54, 0.6000,
  Until: 22:55, 0.6000,
  Until: 22:56, 0.6000,
  Until: 22:57, 0.6000,
  Until: 22:58, 0.6000,
  Until: 22:59, 0.6000,
  Until: 22:60, 0.6000,
  Until: 23:01, 0.6000,
  Until: 23:02, 0.6000,
  Until: 23:03, 0.6000,
  Until: 23:04, 0.6000,
  Until: 23:05, 0.6000,
  Until: 23:06, 0.6000,
  Until: 23:07, 0.6000,
  Until: 23:08, 0.6000,
  Until: 23:09, 0.6000,
  Until: 23:10, 0.6000,
  Until: 23:11, 0.6000,
  Until: 23:12, 0.6000,
  Until: 23:13, 0.6000,
  Until: 23:14, 0.6000,
  Until: 23:15, 0.6000,
  Until: 23:16, 0.6000,
  Until: 23:17, 0.6000,
  Until: 23:18, 0.6000,
  Until: 23:19, 0.6000,
  Until: 23:20, 0.6000,
  Until: 23:21, 0.6000,
  Until: 23:22, 0.6000,
  Until: 23:23, 0.6000,
  Until: 23:24, 0.6000,
  Until: 23:25, 0.6000,
  Until: 23:26, 0.6000,
  Until: 23:27, 0.6000,
  Until: 23:28, 0.6000,
  Until: 23:29, 0.6000,
  Until: 23:30, 0.6000,
  Until: 23:31, 0.6000,
  Until: 23:32, 0.6000,
  Until: 23:33, 0.6000,
  Until: 23:34, 0.6000,
  Until: 23:35, 0.6000,
  Until: 23:36, 0.6000,
  Until: 23:37, 0.6000,
  Until: 23:38, 0.6000,
  Until: 23:39, 0.6000,
  Until: 23:40, 0.6000,
  Until: 23:41, 0.6000,
  Until: 23:42, 0.6000,
  Until: 23:43, 0.6000,
  Until: 23:44, 0.6000,
  Until: 23:45, 0.6000,
  Until: 23:46, 0.6000,
  Until: 23:47, 0.6000,
  Until: 23:48, 0.6000,
  Until: 23:49, 0.6000,
  Until: 23:50, 0.6000,
  Until: 23:51, 0.6000,
  Until: 23:52, 0.6000,
  Until: 23:53, 0.6000,
  Until: 23:54, 0.6000,
  Until: 23:55, 0.6000,
  Until: 23:56, 0.6000,
  Until: 23:57, 0.6000,
  Until: 23:58, 0.6000,
  Until: 23:59, 0.6000,
  Until: 24:00, 0.6000;

Schedule:Compact,
  MixerOpeningSchedule_v6,
  Fraction,
  Through: 12/31,
  For: AllDays,
  Until: 00:01, 0.0000,
  Until: 00:02, 0.0000,
  Until: 00:03, 0.0000,
  Until: 00:04, 0.0000,
  Until: 00:05, 0.0000,
  Until: 00:06, 0.0000,
  Until: 00:07, 0.0000,
  Until: 00:08, 0.0000,
  Until: 00:09, 0.0000,
  Until: 00:10, 0.0000,
  Until: 00:11, 0.0000,
  Until: 00:12, 0.0000,
  Until: 00:13, 0.0000,
  Until: 00:14, 0.0000,
  Until: 00:15, 0.0000,
  Until: 00:16, 0.0000,
  Until: 00:17, 0.1250,
  Until: 00:18, 0.7500,
  Until: 00:19, 0.7500,
  Until: 00:20, 0.7500,
  Until: 00:21, 0.7500,
  Until: 00:22, 0.7500,
  Until: 00:23, 0.7500,
  Until: 00:24, 0.7500,
  Until: 00:25, 0.7500,
  Until: 00:26, 0.7500,
  Until: 00:27, 0.7500,
  Until: 00:28, 0.7500,
  Until: 00:29, 0.7500,
  Until: 00:30, 0.7500,
  Until: 00:31, 0.7500,
  Until: 00:32, 0.7500,
  Until: 00:33, 0.7500,
  Until: 00:34, 0.3750,
  Until: 00:35, 0.0000,
  Until: 00:36, 0.0000,
  Until: 00:37, 0.0000,
  Until: 00:38, 0.0000,
  Until: 00:39, 0.0200,
  Until: 00:40, 0.3792,
  Until: 00:41, 0.5100,
  Until: 00:42, 0.5100,
  Until: 00:43, 0.5100,
  Until: 00:44, 0.5100,
  Until: 00:45, 0.5100,
  Until: 00:46, 0.5100,
  Until: 00:47, 0.5100,
  Until: 00:48, 0.5100,
  Until: 00:49, 0.5100,
  Until: 00:50, 0.5100,
  Until: 00:51, 0.4367,
  Until: 00:52, 0.4000,
  Until: 00:53, 0.4000,
  Until: 00:54, 0.4000,
  Until: 00:55, 0.4000,
  Until: 00:56, 0.4000,
  Until: 00:57, 0.3142,
  Until: 00:58, 0.4000,
  Until: 00:59, 0.4000,
  Until: 00:60, 0.4000,
  Until: 01:01, 0.4000,
  Until: 01:02, 0.4000,
  Until: 01:03, 0.4000,
  Until: 01:04, 0.4000,
  Until: 01:05, 0.4042,
  Until: 01:06, 0.4500,
  Until: 01:07, 0.4500,
  Until: 01:08, 0.4500,
  Until: 01:09, 0.4500,
  Until: 01:10, 0.4500,
  Until: 01:11, 0.4500,
  Until: 01:12, 0.4500,
  Until: 01:13, 0.4500,
  Until: 01:14, 0.4500,
  Until: 01:15, 0.4500,
  Until: 01:16, 0.4500,
  Until: 01:17, 0.4500,
  Until: 01:18, 0.4500,
  Until: 01:19, 0.4500,
  Until: 01:20, 0.1125,
  Until: 01:21, 0.0000,
  Until: 01:22, 0.0000,
  Until: 01:23, 0.0000,
  Until: 01:24, 0.0000,
  Until: 01:25, 0.0000,
  Until: 01:26, 0.0000,
  Until: 01:27, 0.0000,
  Until: 01:28, 0.0000,
  Until: 01:29, 0.0000,
  Until: 01:30, 0.0000,
  Until: 01:31, 0.0000,
  Until: 01:32, 0.0000,
  Until: 01:33, 0.0000,
  Until: 01:34, 0.0000,
  Until: 01:35, 0.0000,
  Until: 01:36, 0.0000,
  Until: 01:37, 0.2925,
  Until: 01:38, 0.3900,
  Until: 01:39, 0.3900,
  Until: 01:40, 0.3900,
  Until: 01:41, 0.3900,
  Until: 01:42, 0.3900,
  Until: 01:43, 0.2283,
  Until: 01:44, 0.4000,
  Until: 01:45, 0.6333,
  Until: 01:46, 0.7500,
  Until: 01:47, 0.7500,
  Until: 01:48, 0.7500,
  Until: 01:49, 0.7500,
  Until: 01:50, 0.7500,
  Until: 01:51, 0.7500,
  Until: 01:52, 0.7500,
  Until: 01:53, 0.7500,
  Until: 01:54, 0.7500,
  Until: 01:55, 0.7500,
  Until: 01:56, 0.7500,
  Until: 01:57, 0.7500,
  Until: 01:58, 0.7500,
  Until: 01:59, 0.7500,
  Until: 01:60, 0.7500,
  Until: 02:01, 0.7500,
  Until: 02:02, 0.5100,
  Until: 02:03, 0.5100,
  Until: 02:04, 0.5917,
  Until: 02:05, 1.0000,
  Until: 02:06, 1.0000,
  Until: 02:07, 1.0000,
  Until: 02:08, 1.0000,
  Until: 02:09, 1.0000,
  Until: 02:10, 1.0000,
  Until: 02:11, 1.0000,
  Until: 02:12, 1.0000,
  Until: 02:13, 1.0000,
  Until: 02:14, 1.0000,
  Until: 02:15, 1.0000,
  Until: 02:16, 1.0000,
  Until: 02:17, 1.0000,
  Until: 02:18, 0.8625,
  Until: 02:19, 0.4500,
  Until: 02:20, 0.4500,
  Until: 02:21, 0.4500,
  Until: 02:22, 0.4500,
  Until: 02:23, 0.4500,
  Until: 02:24, 0.4500,
  Until: 02:25, 0.4500,
  Until: 02:26, 0.4500,
  Until: 02:27, 0.4500,
  Until: 02:28, 0.4500,
  Until: 02:29, 0.4500,
  Until: 02:30, 0.4500,
  Until: 02:31, 0.4500,
  Until: 02:32, 0.4500,
  Until: 02:33, 0.0375,
  Until: 02:34, 0.0000,
  Until: 02:35, 0.0000,
  Until: 02:36, 0.0000,
  Until: 02:37, 0.0000,
  Until: 02:38, 0.0000,
  Until: 02:39, 0.0000,
  Until: 02:40, 0.0000,
  Until: 02:41, 0.0000,
  Until: 02:42, 0.0000,
  Until: 02:43, 0.0000,
  Until: 02:44, 0.0000,
  Until: 02:45, 0.0000,
  Until: 02:46, 0.0000,
  Until: 02:47, 0.0000,
  Until: 02:48, 0.0000,
  Until: 02:49, 0.0333,
  Until: 02:50, 0.4000,
  Until: 02:51, 0.4000,
  Until: 02:52, 0.4000,
  Until: 02:53, 0.4000,
  Until: 02:54, 0.4000,
  Until: 02:55, 0.4000,
  Until: 02:56, 0.4000,
  Until: 02:57, 0.4000,
  Until: 02:58, 0.4000,
  Until: 02:59, 0.4000,
  Until: 02:60, 0.4000,
  Until: 03:01, 0.4000,
  Until: 03:02, 0.4000,
  Until: 03:03, 0.4000,
  Until: 03:04, 0.4000,
  Until: 03:05, 0.4000,
  Until: 03:06, 0.4000,
  Until: 03:07, 0.4000,
  Until: 03:08, 0.0667,
  Until: 03:09, 0.1100,
  Until: 03:10, 0.4400,
  Until: 03:11, 0.4400,
  Until: 03:12, 0.2933,
  Until: 03:13, 0.0000,
  Until: 03:14, 0.0000,
  Until: 03:15, 0.0000,
  Until: 03:16, 0.0000,
  Until: 03:17, 0.0000,
  Until: 03:18, 0.0000,
  Until: 03:19, 0.0000,
  Until: 03:20, 0.0000,
  Until: 03:21, 0.0000,
  Until: 03:22, 0.0000,
  Until: 03:23, 0.0000,
  Until: 03:24, 0.0000,
  Until: 03:25, 0.0000,
  Until: 03:26, 0.0000,
  Until: 03:27, 0.0000,
  Until: 03:28, 0.0000,
  Until: 03:29, 0.3750,
  Until: 03:30, 0.7500,
  Until: 03:31, 0.7500,
  Until: 03:32, 0.7500,
  Until: 03:33, 0.7500,
  Until: 03:34, 0.7500,
  Until: 03:35, 0.7500,
  Until: 03:36, 0.7500,
  Until: 03:37, 0.7500,
  Until: 03:38, 0.7500,
  Until: 03:39, 0.7500,
  Until: 03:40, 0.7500,
  Until: 03:41, 0.7500,
  Until: 03:42, 0.7500,
  Until: 03:43, 0.7500,
  Until: 03:44, 0.7500,
  Until: 03:45, 0.7500,
  Until: 03:46, 0.1250,
  Until: 03:47, 0.3367,
  Until: 03:48, 0.4500,
  Until: 03:49, 0.4500,
  Until: 03:50, 0.4500,
  Until: 03:51, 0.4500,
  Until: 03:52, 0.4500,
  Until: 03:53, 0.4500,
  Until: 03:54, 0.4500,
  Until: 03:55, 0.4500,
  Until: 03:56, 0.4500,
  Until: 03:57, 0.4500,
  Until: 03:58, 0.4500,
  Until: 03:59, 0.4500,
  Until: 03:60, 0.6792,
  Until: 04:01, 1.0000,
  Until: 04:02, 1.0000,
  Until: 04:03, 1.0000,
  Until: 04:04, 1.0000,
  Until: 04:05, 1.0000,
  Until: 04:06, 1.0000,
  Until: 04:07, 1.0000,
  Until: 04:08, 1.0000,
  Until: 04:09, 1.0000,
  Until: 04:10, 1.0000,
  Until: 04:11, 1.0000,
  Until: 04:12, 1.0000,
  Until: 04:13, 1.0000,
  Until: 04:14, 1.0000,
  Until: 04:15, 1.0000,
  Until: 04:16, 1.0000,
  Until: 04:17, 0.6000,
  Until: 04:18, 0.4000,
  Until: 04:19, 0.4000,
  Until: 04:20, 0.4000,
  Until: 04:21, 0.4000,
  Until: 04:22, 0.4000,
  Until: 04:23, 0.4000,
  Until: 04:24, 0.4000,
  Until: 04:25, 0.4000,
  Until: 04:26, 0.4000,
  Until: 04:27, 0.4000,
  Until: 04:28, 0.4000,
  Until: 04:29, 0.4000,
  Until: 04:30, 0.4000,
  Until: 04:31, 0.3667,
  Until: 04:32, 0.0000,
  Until: 04:33, 0.0000,
  Until: 04:34, 0.0000,
  Until: 04:35, 0.0000,
  Until: 04:36, 0.0000,
  Until: 04:37, 0.0000,
  Until: 04:38, 0.0000,
  Until: 04:39, 0.0000,
  Until: 04:40, 0.0000,
  Until: 04:41, 0.0000,
  Until: 04:42, 0.0000,
  Until: 04:43, 0.0000,
  Until: 04:44, 0.0000,
  Until: 04:45, 0.0000,
  Until: 04:46, 0.0000,
  Until: 04:47, 0.0000,
  Until: 04:48, 0.1875,
  Until: 04:49, 0.7500,
  Until: 04:50, 0.7500,
  Until: 04:51, 0.7500,
  Until: 04:52, 0.7500,
  Until: 04:53, 0.7500,
  Until: 04:54, 0.7500,
  Until: 04:55, 0.7500,
  Until: 04:56, 0.7500,
  Until: 04:57, 0.7500,
  Until: 04:58, 0.7500,
  Until: 04:59, 0.7500,
  Until: 04:60, 0.7500,
  Until: 05:01, 0.7500,
  Until: 05:02, 0.7500,
  Until: 05:03, 0.7500,
  Until: 05:04, 0.7500,
  Until: 05:05, 0.5458,
  Until: 05:06, 0.4000,
  Until: 05:07, 0.4000,
  Until: 05:08, 0.4000,
  Until: 05:09, 0.4000,
  Until: 05:10, 0.4000,
  Until: 05:11, 0.4000,
  Until: 05:12, 0.4000,
  Until: 05:13, 0.2667,
  Until: 05:14, 0.0000,
  Until: 05:15, 0.0000,
  Until: 05:16, 0.0000,
  Until: 05:17, 0.0000,
  Until: 05:18, 0.0000,
  Until: 05:19, 0.0000,
  Until: 05:20, 0.0000,
  Until: 05:21, 0.0000,
  Until: 05:22, 0.0000,
  Until: 05:23, 0.0000,
  Until: 05:24, 0.0000,
  Until: 05:25, 0.0000,
  Until: 05:26, 0.0000,
  Until: 05:27, 0.0000,
  Until: 05:28, 0.0000,
  Until: 05:29, 0.0000,
  Until: 05:30, 0.2250,
  Until: 05:31, 0.4500,
  Until: 05:32, 0.4500,
  Until: 05:33, 0.4500,
  Until: 05:34, 0.4500,
  Until: 05:35, 0.4500,
  Until: 05:36, 0.4500,
  Until: 05:37, 0.4500,
  Until: 05:38, 0.4500,
  Until: 05:39, 0.4500,
  Until: 05:40, 0.4500,
  Until: 05:41, 0.4500,
  Until: 05:42, 0.4500,
  Until: 05:43, 0.4500,
  Until: 05:44, 0.4417,
  Until: 05:45, 0.4000,
  Until: 05:46, 0.4000,
  Until: 05:47, 0.4000,
  Until: 05:48, 0.4000,
  Until: 05:49, 0.4000,
  Until: 05:50, 0.4000,
  Until: 05:51, 0.4000,
  Until: 05:52, 0.4000,
  Until: 05:53, 0.4000,
  Until: 05:54, 0.4000,
  Until: 05:55, 0.4000,
  Until: 05:56, 0.4000,
  Until: 05:57, 0.4000,
  Until: 05:58, 0.4000,
  Until: 05:59, 0.4733,
  Until: 05:60, 0.5100,
  Until: 06:01, 0.5100,
  Until: 06:02, 0.5100,
  Until: 06:03, 0.5100,
  Until: 06:04, 0.5100,
  Until: 06:05, 0.5100,
  Until: 06:06, 0.5100,
  Until: 06:07, 0.5100,
  Until: 06:08, 0.5100,
  Until: 06:09, 0.5100,
  Until: 06:10, 0.5100,
  Until: 06:11, 0.5100,
  Until: 06:12, 0.5100,
  Until: 06:13, 0.5100,
  Until: 06:14, 0.5100,
  Until: 06:15, 0.5100,
  Until: 06:16, 0.7100,
  Until: 06:17, 0.7500,
  Until: 06:18, 0.7500,
  Until: 06:19, 0.7500,
  Until: 06:20, 0.7500,
  Until: 06:21, 0.7500,
  Until: 06:22, 0.7500,
  Until: 06:23, 0.7500,
  Until: 06:24, 0.7500,
  Until: 06:25, 0.7500,
  Until: 06:26, 0.7500,
  Until: 06:27, 0.7500,
  Until: 06:28, 0.7500,
  Until: 06:29, 0.7500,
  Until: 06:30, 0.7500,
  Until: 06:31, 0.7500,
  Until: 06:32, 0.7000,
  Until: 06:33, 0.4500,
  Until: 06:34, 0.4500,
  Until: 06:35, 0.4500,
  Until: 06:36, 0.4500,
  Until: 06:37, 0.4500,
  Until: 06:38, 0.4500,
  Until: 06:39, 0.4500,
  Until: 06:40, 0.4500,
  Until: 06:41, 0.4500,
  Until: 06:42, 0.4500,
  Until: 06:43, 0.4500,
  Until: 06:44, 0.4500,
  Until: 06:45, 0.4500,
  Until: 06:46, 0.4500,
  Until: 06:47, 0.4083,
  Until: 06:48, 0.4000,
  Until: 06:49, 0.4000,
  Until: 06:50, 0.4000,
  Until: 06:51, 0.4000,
  Until: 06:52, 0.4000,
  Until: 06:53, 0.4000,
  Until: 06:54, 0.4000,
  Until: 06:55, 0.4000,
  Until: 06:56, 0.4000,
  Until: 06:57, 0.4000,
  Until: 06:58, 0.4000,
  Until: 06:59, 0.4000,
  Until: 06:60, 0.4000,
  Until: 07:01, 0.4000,
  Until: 07:02, 0.4000,
  Until: 07:03, 0.4000,
  Until: 07:04, 0.4000,
  Until: 07:05, 0.4000,
  Until: 07:06, 0.4000,
  Until: 07:07, 0.4000,
  Until: 07:08, 0.4000,
  Until: 07:09, 0.4000,
  Until: 07:10, 0.4000,
  Until: 07:11, 0.4000,
  Until: 07:12, 0.4000,
  Until: 07:13, 0.4000,
  Until: 07:14, 0.4000,
  Until: 07:15, 0.4000,
  Until: 07:16, 0.4000,
  Until: 07:17, 0.4000,
  Until: 07:18, 0.4000,
  Until: 07:19, 0.4000,
  Until: 07:20, 0.4000,
  Until: 07:21, 0.4000,
  Until: 07:22, 0.4000,
  Until: 07:23, 0.4000,
  Until: 07:24, 0.4000,
  Until: 07:25, 0.4000,
  Until: 07:26, 0.4000,
  Until: 07:27, 0.4000,
  Until: 07:28, 0.4000,
  Until: 07:29, 0.4000,
  Until: 07:30, 0.4000,
  Until: 07:31, 0.4000,
  Until: 07:32, 0.4000,
  Until: 07:33, 0.4000,
  Until: 07:34, 0.4000,
  Until: 07:35, 0.4000,
  Until: 07:36, 0.4000,
  Until: 07:37, 0.4000,
  Until: 07:38, 0.4000,
  Until: 07:39, 0.4000,
  Until: 07:40, 0.4000,
  Until: 07:41, 0.4000,
  Until: 07:42, 0.4000,
  Until: 07:43, 0.4000,
  Until: 07:44, 0.4000,
  Until: 07:45, 0.4000,
  Until: 07:46, 0.4000,
  Until: 07:47, 0.4000,
  Until: 07:48, 0.4000,
  Until: 07:49, 0.4000,
  Until: 07:50, 0.4000,
  Until: 07:51, 0.4000,
  Until: 07:52, 0.4000,
  Until: 07:53, 0.4000,
  Until: 07:54, 0.4000,
  Until: 07:55, 0.4000,
  Until: 07:56, 0.4000,
  Until: 07:57, 0.4000,
  Until: 07:58, 0.4000,
  Until: 07:59, 0.4000,
  Until: 07:60, 0.4000,
  Until: 08:01, 0.4000,
  Until: 08:02, 0.4000,
  Until: 08:03, 0.4000,
  Until: 08:04, 0.4000,
  Until: 08:05, 0.4000,
  Until: 08:06, 0.4000,
  Until: 08:07, 0.4000,
  Until: 08:08, 0.4000,
  Until: 08:09, 0.4000,
  Until: 08:10, 0.4000,
  Until: 08:11, 0.4000,
  Until: 08:12, 0.4000,
  Until: 08:13, 0.4000,
  Until: 08:14, 0.4000,
  Until: 08:15, 0.4000,
  Until: 08:16, 0.4000,
  Until: 08:17, 0.4000,
  Until: 08:18, 0.4000,
  Until: 08:19, 0.4000,
  Until: 08:20, 0.4000,
  Until: 08:21, 0.4000,
  Until: 08:22, 0.4000,
  Until: 08:23, 0.4000,
  Until: 08:24, 0.4000,
  Until: 08:25, 0.4000,
  Until: 08:26, 0.4000,
  Until: 08:27, 0.4000,
  Until: 08:28, 0.4000,
  Until: 08:29, 0.4000,
  Until: 08:30, 0.4000,
  Until: 08:31, 0.4000,
  Until: 08:32, 0.4000,
  Until: 08:33, 0.4000,
  Until: 08:34, 0.4000,
  Until: 08:35, 0.4000,
  Until: 08:36, 0.4000,
  Until: 08:37, 0.4000,
  Until: 08:38, 0.4000,
  Until: 08:39, 0.4000,
  Until: 08:40, 0.4000,
  Until: 08:41, 0.4000,
  Until: 08:42, 0.4000,
  Until: 08:43, 0.4000,
  Until: 08:44, 0.4000,
  Until: 08:45, 0.4000,
  Until: 08:46, 0.4000,
  Until: 08:47, 0.4000,
  Until: 08:48, 0.4000,
  Until: 08:49, 0.4000,
  Until: 08:50, 0.4000,
  Until: 08:51, 0.4000,
  Until: 08:52, 0.4000,
  Until: 08:53, 0.4000,
  Until: 08:54, 0.4000,
  Until: 08:55, 0.4000,
  Until: 08:56, 0.4000,
  Until: 08:57, 0.4000,
  Until: 08:58, 0.4000,
  Until: 08:59, 0.4000,
  Until: 08:60, 0.4000,
  Until: 09:01, 0.4000,
  Until: 09:02, 0.4000,
  Until: 09:03, 0.4000,
  Until: 09:04, 0.4000,
  Until: 09:05, 0.4000,
  Until: 09:06, 0.4000,
  Until: 09:07, 0.4000,
  Until: 09:08, 0.4000,
  Until: 09:09, 0.4000,
  Until: 09:10, 0.4000,
  Until: 09:11, 0.4000,
  Until: 09:12, 0.4000,
  Until: 09:13, 0.4000,
  Until: 09:14, 0.4000,
  Until: 09:15, 0.4000,
  Until: 09:16, 0.4000,
  Until: 09:17, 0.4000,
  Until: 09:18, 0.4000,
  Until: 09:19, 0.4000,
  Until: 09:20, 0.4000,
  Until: 09:21, 0.4000,
  Until: 09:22, 0.4000,
  Until: 09:23, 0.4000,
  Until: 09:24, 0.4000,
  Until: 09:25, 0.4000,
  Until: 09:26, 0.4000,
  Until: 09:27, 0.4000,
  Until: 09:28, 0.4000,
  Until: 09:29, 0.4000,
  Until: 09:30, 0.4000,
  Until: 09:31, 0.4000,
  Until: 09:32, 0.4000,
  Until: 09:33, 0.4000,
  Until: 09:34, 0.4000,
  Until: 09:35, 0.4000,
  Until: 09:36, 0.4000,
  Until: 09:37, 0.4000,
  Until: 09:38, 0.4000,
  Until: 09:39, 0.4000,
  Until: 09:40, 0.4000,
  Until: 09:41, 0.4000,
  Until: 09:42, 0.4000,
  Until: 09:43, 0.4000,
  Until: 09:44, 0.4000,
  Until: 09:45, 0.4000,
  Until: 09:46, 0.4000,
  Until: 09:47, 0.4000,
  Until: 09:48, 0.4000,
  Until: 09:49, 0.4000,
  Until: 09:50, 0.4000,
  Until: 09:51, 0.4000,
  Until: 09:52, 0.4000,
  Until: 09:53, 0.4000,
  Until: 09:54, 0.4000,
  Until: 09:55, 0.4000,
  Until: 09:56, 0.4000,
  Until: 09:57, 0.4000,
  Until: 09:58, 0.4000,
  Until: 09:59, 0.4000,
  Until: 09:60, 0.4000,
  Until: 10:01, 0.4000,
  Until: 10:02, 0.4000,
  Until: 10:03, 0.4000,
  Until: 10:04, 0.4000,
  Until: 10:05, 0.4000,
  Until: 10:06, 0.4000,
  Until: 10:07, 0.4000,
  Until: 10:08, 0.4000,
  Until: 10:09, 0.4000,
  Until: 10:10, 0.4000,
  Until: 10:11, 0.4000,
  Until: 10:12, 0.4000,
  Until: 10:13, 0.4000,
  Until: 10:14, 0.4000,
  Until: 10:15, 0.4000,
  Until: 10:16, 0.4000,
  Until: 10:17, 0.4000,
  Until: 10:18, 0.4000,
  Until: 10:19, 0.4000,
  Until: 10:20, 0.4000,
  Until: 10:21, 0.4000,
  Until: 10:22, 0.4000,
  Until: 10:23, 0.4000,
  Until: 10:24, 0.4000,
  Until: 10:25, 0.4000,
  Until: 10:26, 0.4000,
  Until: 10:27, 0.4000,
  Until: 10:28, 0.4000,
  Until: 10:29, 0.4000,
  Until: 10:30, 0.4000,
  Until: 10:31, 0.4000,
  Until: 10:32, 0.4000,
  Until: 10:33, 0.4000,
  Until: 10:34, 0.4000,
  Until: 10:35, 0.4000,
  Until: 10:36, 0.4000,
  Until: 10:37, 0.4000,
  Until: 10:38, 0.4000,
  Until: 10:39, 0.4000,
  Until: 10:40, 0.4000,
  Until: 10:41, 0.4000,
  Until: 10:42, 0.4000,
  Until: 10:43, 0.4000,
  Until: 10:44, 0.4000,
  Until: 10:45, 0.4000,
  Until: 10:46, 0.4000,
  Until: 10:47, 0.4000,
  Until: 10:48, 0.4000,
  Until: 10:49, 0.4000,
  Until: 10:50, 0.4000,
  Until: 10:51, 0.4000,
  Until: 10:52, 0.4000,
  Until: 10:53, 0.4000,
  Until: 10:54, 0.4000,
  Until: 10:55, 0.4000,
  Until: 10:56, 0.4000,
  Until: 10:57, 0.4000,
  Until: 10:58, 0.4000,
  Until: 10:59, 0.4000,
  Until: 10:60, 0.4000,
  Until: 11:01, 0.4000,
  Until: 11:02, 0.4000,
  Until: 11:03, 0.4000,
  Until: 11:04, 0.4000,
  Until: 11:05, 0.4000,
  Until: 11:06, 0.4000,
  Until: 11:07, 0.4000,
  Until: 11:08, 0.4000,
  Until: 11:09, 0.4000,
  Until: 11:10, 0.4000,
  Until: 11:11, 0.4000,
  Until: 11:12, 0.4000,
  Until: 11:13, 0.4000,
  Until: 11:14, 0.4000,
  Until: 11:15, 0.4000,
  Until: 11:16, 0.4000,
  Until: 11:17, 0.4000,
  Until: 11:18, 0.4000,
  Until: 11:19, 0.4000,
  Until: 11:20, 0.4000,
  Until: 11:21, 0.4000,
  Until: 11:22, 0.4000,
  Until: 11:23, 0.4000,
  Until: 11:24, 0.4000,
  Until: 11:25, 0.4000,
  Until: 11:26, 0.4000,
  Until: 11:27, 0.4000,
  Until: 11:28, 0.4000,
  Until: 11:29, 0.4000,
  Until: 11:30, 0.4000,
  Until: 11:31, 0.4000,
  Until: 11:32, 0.4000,
  Until: 11:33, 0.4000,
  Until: 11:34, 0.4000,
  Until: 11:35, 0.4000,
  Until: 11:36, 0.4000,
  Until: 11:37, 0.4000,
  Until: 11:38, 0.4000,
  Until: 11:39, 0.4000,
  Until: 11:40, 0.4000,
  Until: 11:41, 0.4000,
  Until: 11:42, 0.4000,
  Until: 11:43, 0.4000,
  Until: 11:44, 0.4000,
  Until: 11:45, 0.4000,
  Until: 11:46, 0.4000,
  Until: 11:47, 0.4000,
  Until: 11:48, 0.4000,
  Until: 11:49, 0.4000,
  Until: 11:50, 0.4000,
  Until: 11:51, 0.4000,
  Until: 11:52, 0.4000,
  Until: 11:53, 0.4000,
  Until: 11:54, 0.4000,
  Until: 11:55, 0.4000,
  Until: 11:56, 0.4000,
  Until: 11:57, 0.4000,
  Until: 11:58, 0.4000,
  Until: 11:59, 0.4000,
  Until: 11:60, 0.4000,
  Until: 12:01, 0.4000,
  Until: 12:02, 0.4000,
  Until: 12:03, 0.4000,
  Until: 12:04, 0.4000,
  Until: 12:05, 0.4000,
  Until: 12:06, 0.4000,
  Until: 12:07, 0.4000,
  Until: 12:08, 0.4000,
  Until: 12:09, 0.4000,
  Until: 12:10, 0.4000,
  Until: 12:11, 0.4000,
  Until: 12:12, 0.4000,
  Until: 12:13, 0.4000,
  Until: 12:14, 0.4000,
  Until: 12:15, 0.4000,
  Until: 12:16, 0.4000,
  Until: 12:17, 0.4000,
  Until: 12:18, 0.4000,
  Until: 12:19, 0.4000,
  Until: 12:20, 0.4000,
  Until: 12:21, 0.4000,
  Until: 12:22, 0.4000,
  Until: 12:23, 0.4000,
  Until: 12:24, 0.4000,
  Until: 12:25, 0.4000,
  Until: 12:26, 0.4000,
  Until: 12:27, 0.4000,
  Until: 12:28, 0.4000,
  Until: 12:29, 0.4000,
  Until: 12:30, 0.4000,
  Until: 12:31, 0.4000,
  Until: 12:32, 0.4000,
  Until: 12:33, 0.4000,
  Until: 12:34, 0.4000,
  Until: 12:35, 0.4000,
  Until: 12:36, 0.4000,
  Until: 12:37, 0.4000,
  Until: 12:38, 0.4000,
  Until: 12:39, 0.4000,
  Until: 12:40, 0.4000,
  Until: 12:41, 0.4000,
  Until: 12:42, 0.4000,
  Until: 12:43, 0.4000,
  Until: 12:44, 0.4000,
  Until: 12:45, 0.4000,
  Until: 12:46, 0.4000,
  Until: 12:47, 0.4000,
  Until: 12:48, 0.4000,
  Until: 12:49, 0.4000,
  Until: 12:50, 0.4000,
  Until: 12:51, 0.4000,
  Until: 12:52, 0.4000,
  Until: 12:53, 0.4000,
  Until: 12:54, 0.4000,
  Until: 12:55, 0.4000,
  Until: 12:56, 0.4000,
  Until: 12:57, 0.4000,
  Until: 12:58, 0.4000,
  Until: 12:59, 0.4000,
  Until: 12:60, 0.4000,
  Until: 13:01, 0.4000,
  Until: 13:02, 0.4000,
  Until: 13:03, 0.4000,
  Until: 13:04, 0.4000,
  Until: 13:05, 0.4000,
  Until: 13:06, 0.4000,
  Until: 13:07, 0.4000,
  Until: 13:08, 0.4000,
  Until: 13:09, 0.4000,
  Until: 13:10, 0.4000,
  Until: 13:11, 0.4000,
  Until: 13:12, 0.4000,
  Until: 13:13, 0.4000,
  Until: 13:14, 0.4000,
  Until: 13:15, 0.4000,
  Until: 13:16, 0.4000,
  Until: 13:17, 0.4000,
  Until: 13:18, 0.4000,
  Until: 13:19, 0.4000,
  Until: 13:20, 0.4000,
  Until: 13:21, 0.4000,
  Until: 13:22, 0.4000,
  Until: 13:23, 0.4000,
  Until: 13:24, 0.4000,
  Until: 13:25, 0.4000,
  Until: 13:26, 0.4000,
  Until: 13:27, 0.4000,
  Until: 13:28, 0.4000,
  Until: 13:29, 0.4000,
  Until: 13:30, 0.4000,
  Until: 13:31, 0.4000,
  Until: 13:32, 0.4000,
  Until: 13:33, 0.4000,
  Until: 13:34, 0.4000,
  Until: 13:35, 0.4000,
  Until: 13:36, 0.4000,
  Until: 13:37, 0.4000,
  Until: 13:38, 0.4000,
  Until: 13:39, 0.4000,
  Until: 13:40, 0.4000,
  Until: 13:41, 0.4000,
  Until: 13:42, 0.4000,
  Until: 13:43, 0.4000,
  Until: 13:44, 0.4000,
  Until: 13:45, 0.4000,
  Until: 13:46, 0.4000,
  Until: 13:47, 0.4000,
  Until: 13:48, 0.4000,
  Until: 13:49, 0.4000,
  Until: 13:50, 0.4000,
  Until: 13:51, 0.4000,
  Until: 13:52, 0.4000,
  Until: 13:53, 0.4000,
  Until: 13:54, 0.4000,
  Until: 13:55, 0.4000,
  Until: 13:56, 0.4000,
  Until: 13:57, 0.4000,
  Until: 13:58, 0.4000,
  Until: 13:59, 0.4000,
  Until: 13:60, 0.4000,
  Until: 14:01, 0.4000,
  Until: 14:02, 0.4000,
  Until: 14:03, 0.4000,
  Until: 14:04, 0.4000,
  Until: 14:05, 0.4000,
  Until: 14:06, 0.4000,
  Until: 14:07, 0.4000,
  Until: 14:08, 0.4000,
  Until: 14:09, 0.4000,
  Until: 14:10, 0.4000,
  Until: 14:11, 0.4000,
  Until: 14:12, 0.4000,
  Until: 14:13, 0.4000,
  Until: 14:14, 0.4000,
  Until: 14:15, 0.4000,
  Until: 14:16, 0.4000,
  Until: 14:17, 0.4000,
  Until: 14:18, 0.4000,
  Until: 14:19, 0.4000,
  Until: 14:20, 0.4000,
  Until: 14:21, 0.4000,
  Until: 14:22, 0.4000,
  Until: 14:23, 0.4000,
  Until: 14:24, 0.4000,
  Until: 14:25, 0.4000,
  Until: 14:26, 0.4000,
  Until: 14:27, 0.4000,
  Until: 14:28, 0.4000,
  Until: 14:29, 0.4000,
  Until: 14:30, 0.4000,
  Until: 14:31, 0.4000,
  Until: 14:32, 0.4000,
  Until: 14:33, 0.4000,
  Until: 14:34, 0.4000,
  Until: 14:35, 0.4000,
  Until: 14:36, 0.4000,
  Until: 14:37, 0.4000,
  Until: 14:38, 0.4000,
  Until: 14:39, 0.4000,
  Until: 14:40, 0.4000,
  Until: 14:41, 0.4000,
  Until: 14:42, 0.4000,
  Until: 14:43, 0.4000,
  Until: 14:44, 0.4000,
  Until: 14:45, 0.4000,
  Until: 14:46, 0.4000,
  Until: 14:47, 0.4000,
  Until: 14:48, 0.4000,
  Until: 14:49, 0.4000,
  Until: 14:50, 0.4000,
  Until: 14:51, 0.4000,
  Until: 14:52, 0.4000,
  Until: 14:53, 0.4000,
  Until: 14:54, 0.4000,
  Until: 14:55, 0.4000,
  Until: 14:56, 0.4000,
  Until: 14:57, 0.4000,
  Until: 14:58, 0.4000,
  Until: 14:59, 0.4000,
  Until: 14:60, 0.4000,
  Until: 15:01, 0.4000,
  Until: 15:02, 0.4000,
  Until: 15:03, 0.4000,
  Until: 15:04, 0.4000,
  Until: 15:05, 0.4000,
  Until: 15:06, 0.4000,
  Until: 15:07, 0.4000,
  Until: 15:08, 0.4000,
  Until: 15:09, 0.4000,
  Until: 15:10, 0.4000,
  Until: 15:11, 0.4000,
  Until: 15:12, 0.4000,
  Until: 15:13, 0.4000,
  Until: 15:14, 0.4000,
  Until: 15:15, 0.4000,
  Until: 15:16, 0.4000,
  Until: 15:17, 0.4000,
  Until: 15:18, 0.4000,
  Until: 15:19, 0.4000,
  Until: 15:20, 0.4000,
  Until: 15:21, 0.4000,
  Until: 15:22, 0.4000,
  Until: 15:23, 0.4000,
  Until: 15:24, 0.4000,
  Until: 15:25, 0.4000,
  Until: 15:26, 0.4000,
  Until: 15:27, 0.4000,
  Until: 15:28, 0.4000,
  Until: 15:29, 0.4000,
  Until: 15:30, 0.4000,
  Until: 15:31, 0.4000,
  Until: 15:32, 0.4000,
  Until: 15:33, 0.4000,
  Until: 15:34, 0.4000,
  Until: 15:35, 0.4000,
  Until: 15:36, 0.4000,
  Until: 15:37, 0.4000,
  Until: 15:38, 0.4000,
  Until: 15:39, 0.4000,
  Until: 15:40, 0.4000,
  Until: 15:41, 0.4000,
  Until: 15:42, 0.4000,
  Until: 15:43, 0.4000,
  Until: 15:44, 0.4000,
  Until: 15:45, 0.4000,
  Until: 15:46, 0.4000,
  Until: 15:47, 0.4000,
  Until: 15:48, 0.4000,
  Until: 15:49, 0.4000,
  Until: 15:50, 0.4000,
  Until: 15:51, 0.4000,
  Until: 15:52, 0.4000,
  Until: 15:53, 0.4000,
  Until: 15:54, 0.4000,
  Until: 15:55, 0.4000,
  Until: 15:56, 0.4000,
  Until: 15:57, 0.4000,
  Until: 15:58, 0.4000,
  Until: 15:59, 0.4000,
  Until: 15:60, 0.4000,
  Until: 16:01, 0.4000,
  Until: 16:02, 0.4000,
  Until: 16:03, 0.4000,
  Until: 16:04, 0.4000,
  Until: 16:05, 0.4000,
  Until: 16:06, 0.4000,
  Until: 16:07, 0.4000,
  Until: 16:08, 0.4000,
  Until: 16:09, 0.4000,
  Until: 16:10, 0.4000,
  Until: 16:11, 0.4000,
  Until: 16:12, 0.4000,
  Until: 16:13, 0.4000,
  Until: 16:14, 0.4000,
  Until: 16:15, 0.4000,
  Until: 16:16, 0.4000,
  Until: 16:17, 0.4000,
  Until: 16:18, 0.4000,
  Until: 16:19, 0.4000,
  Until: 16:20, 0.4000,
  Until: 16:21, 0.4000,
  Until: 16:22, 0.4000,
  Until: 16:23, 0.4000,
  Until: 16:24, 0.4000,
  Until: 16:25, 0.4000,
  Until: 16:26, 0.4000,
  Until: 16:27, 0.4000,
  Until: 16:28, 0.4000,
  Until: 16:29, 0.4000,
  Until: 16:30, 0.4000,
  Until: 16:31, 0.4000,
  Until: 16:32, 0.4000,
  Until: 16:33, 0.4000,
  Until: 16:34, 0.4000,
  Until: 16:35, 0.4000,
  Until: 16:36, 0.4000,
  Until: 16:37, 0.4000,
  Until: 16:38, 0.4000,
  Until: 16:39, 0.4000,
  Until: 16:40, 0.4000,
  Until: 16:41, 0.4000,
  Until: 16:42, 0.4000,
  Until: 16:43, 0.4000,
  Until: 16:44, 0.4000,
  Until: 16:45, 0.4000,
  Until: 16:46, 0.4000,
  Until: 16:47, 0.4000,
  Until: 16:48, 0.4000,
  Until: 16:49, 0.4000,
  Until: 16:50, 0.4000,
  Until: 16:51, 0.4000,
  Until: 16:52, 0.4000,
  Until: 16:53, 0.4000,
  Until: 16:54, 0.4000,
  Until: 16:55, 0.4000,
  Until: 16:56, 0.4000,
  Until: 16:57, 0.4000,
  Until: 16:58, 0.4000,
  Until: 16:59, 0.4000,
  Until: 16:60, 0.4000,
  Until: 17:01, 0.4000,
  Until: 17:02, 0.4000,
  Until: 17:03, 0.4000,
  Until: 17:04, 0.4000,
  Until: 17:05, 0.4000,
  Until: 17:06, 0.4000,
  Until: 17:07, 0.4000,
  Until: 17:08, 0.4000,
  Until: 17:09, 0.4000,
  Until: 17:10, 0.4000,
  Until: 17:11, 0.4000,
  Until: 17:12, 0.4000,
  Until: 17:13, 0.4000,
  Until: 17:14, 0.4000,
  Until: 17:15, 0.4000,
  Until: 17:16, 0.4000,
  Until: 17:17, 0.4000,
  Until: 17:18, 0.4000,
  Until: 17:19, 0.4000,
  Until: 17:20, 0.4000,
  Until: 17:21, 0.4000,
  Until: 17:22, 0.4000,
  Until: 17:23, 0.4000,
  Until: 17:24, 0.4000,
  Until: 17:25, 0.4000,
  Until: 17:26, 0.4000,
  Until: 17:27, 0.4000,
  Until: 17:28, 0.4000,
  Until: 17:29, 0.4000,
  Until: 17:30, 0.4000,
  Until: 17:31, 0.4000,
  Until: 17:32, 0.4000,
  Until: 17:33, 0.4000,
  Until: 17:34, 0.4000,
  Until: 17:35, 0.4000,
  Until: 17:36, 0.4000,
  Until: 17:37, 0.4000,
  Until: 17:38, 0.4000,
  Until: 17:39, 0.4000,
  Until: 17:40, 0.4000,
  Until: 17:41, 0.4000,
  Until: 17:42, 0.4000,
  Until: 17:43, 0.4000,
  Until: 17:44, 0.4000,
  Until: 17:45, 0.4000,
  Until: 17:46, 0.4000,
  Until: 17:47, 0.4000,
  Until: 17:48, 0.4000,
  Until: 17:49, 0.4000,
  Until: 17:50, 0.4000,
  Until: 17:51, 0.4000,
  Until: 17:52, 0.4000,
  Until: 17:53, 0.4000,
  Until: 17:54, 0.4000,
  Until: 17:55, 0.4000,
  Until: 17:56, 0.4000,
  Until: 17:57, 0.4000,
  Until: 17:58, 0.4000,
  Until: 17:59, 0.4000,
  Until: 17:60, 0.4000,
  Until: 18:01, 0.4000,
  Until: 18:02, 0.4000,
  Until: 18:03, 0.4000,
  Until: 18:04, 0.4000,
  Until: 18:05, 0.4000,
  Until: 18:06, 0.4000,
  Until: 18:07, 0.4000,
  Until: 18:08, 0.4000,
  Until: 18:09, 0.4000,
  Until: 18:10, 0.4000,
  Until: 18:11, 0.4000,
  Until: 18:12, 0.4000,
  Until: 18:13, 0.4000,
  Until: 18:14, 0.4000,
  Until: 18:15, 0.4000,
  Until: 18:16, 0.4000,
  Until: 18:17, 0.4000,
  Until: 18:18, 0.4000,
  Until: 18:19, 0.4000,
  Until: 18:20, 0.4000,
  Until: 18:21, 0.4000,
  Until: 18:22, 0.4000,
  Until: 18:23, 0.4000,
  Until: 18:24, 0.4000,
  Until: 18:25, 0.4000,
  Until: 18:26, 0.4000,
  Until: 18:27, 0.4000,
  Until: 18:28, 0.4000,
  Until: 18:29, 0.4000,
  Until: 18:30, 0.4000,
  Until: 18:31, 0.4000,
  Until: 18:32, 0.4000,
  Until: 18:33, 0.4000,
  Until: 18:34, 0.4000,
  Until: 18:35, 0.4000,
  Until: 18:36, 0.4000,
  Until: 18:37, 0.4000,
  Until: 18:38, 0.4000,
  Until: 18:39, 0.4000,
  Until: 18:40, 0.4000,
  Until: 18:41, 0.4000,
  Until: 18:42, 0.4000,
  Until: 18:43, 0.4000,
  Until: 18:44, 0.4000,
  Until: 18:45, 0.4000,
  Until: 18:46, 0.4000,
  Until: 18:47, 0.4000,
  Until: 18:48, 0.4000,
  Until: 18:49, 0.4000,
  Until: 18:50, 0.4000,
  Until: 18:51, 0.4000,
  Until: 18:52, 0.4000,
  Until: 18:53, 0.4000,
  Until: 18:54, 0.4000,
  Until: 18:55, 0.4000,
  Until: 18:56, 0.4000,
  Until: 18:57, 0.4000,
  Until: 18:58, 0.4000,
  Until: 18:59, 0.4000,
  Until: 18:60, 0.4000,
  Until: 19:01, 0.4000,
  Until: 19:02, 0.4000,
  Until: 19:03, 0.4000,
  Until: 19:04, 0.4000,
  Until: 19:05, 0.4000,
  Until: 19:06, 0.4000,
  Until: 19:07, 0.4000,
  Until: 19:08, 0.4000,
  Until: 19:09, 0.4000,
  Until: 19:10, 0.4000,
  Until: 19:11, 0.4000,
  Until: 19:12, 0.4000,
  Until: 19:13, 0.4000,
  Until: 19:14, 0.4000,
  Until: 19:15, 0.4000,
  Until: 19:16, 0.4000,
  Until: 19:17, 0.4000,
  Until: 19:18, 0.4000,
  Until: 19:19, 0.4000,
  Until: 19:20, 0.4000,
  Until: 19:21, 0.4000,
  Until: 19:22, 0.4000,
  Until: 19:23, 0.4000,
  Until: 19:24, 0.4000,
  Until: 19:25, 0.4000,
  Until: 19:26, 0.4000,
  Until: 19:27, 0.4000,
  Until: 19:28, 0.4000,
  Until: 19:29, 0.4000,
  Until: 19:30, 0.4000,
  Until: 19:31, 0.4000,
  Until: 19:32, 0.4000,
  Until: 19:33, 0.4000,
  Until: 19:34, 0.4000,
  Until: 19:35, 0.4000,
  Until: 19:36, 0.4000,
  Until: 19:37, 0.4000,
  Until: 19:38, 0.4000,
  Until: 19:39, 0.4000,
  Until: 19:40, 0.4000,
  Until: 19:41, 0.4000,
  Until: 19:42, 0.4000,
  Until: 19:43, 0.4000,
  Until: 19:44, 0.4000,
  Until: 19:45, 0.4000,
  Until: 19:46, 0.4000,
  Until: 19:47, 0.4000,
  Until: 19:48, 0.4000,
  Until: 19:49, 0.4000,
  Until: 19:50, 0.4000,
  Until: 19:51, 0.4000,
  Until: 19:52, 0.4000,
  Until: 19:53, 0.4000,
  Until: 19:54, 0.4000,
  Until: 19:55, 0.4000,
  Until: 19:56, 0.4000,
  Until: 19:57, 0.4000,
  Until: 19:58, 0.4000,
  Until: 19:59, 0.4000,
  Until: 19:60, 0.4000,
  Until: 20:01, 0.4000,
  Until: 20:02, 0.4000,
  Until: 20:03, 0.4000,
  Until: 20:04, 0.4000,
  Until: 20:05, 0.4000,
  Until: 20:06, 0.4000,
  Until: 20:07, 0.4000,
  Until: 20:08, 0.4000,
  Until: 20:09, 0.4000,
  Until: 20:10, 0.4000,
  Until: 20:11, 0.4000,
  Until: 20:12, 0.4000,
  Until: 20:13, 0.4000,
  Until: 20:14, 0.4000,
  Until: 20:15, 0.4000,
  Until: 20:16, 0.4000,
  Until: 20:17, 0.4000,
  Until: 20:18, 0.4000,
  Until: 20:19, 0.4000,
  Until: 20:20, 0.4000,
  Until: 20:21, 0.4000,
  Until: 20:22, 0.4000,
  Until: 20:23, 0.4000,
  Until: 20:24, 0.4000,
  Until: 20:25, 0.4000,
  Until: 20:26, 0.4000,
  Until: 20:27, 0.4000,
  Until: 20:28, 0.4000,
  Until: 20:29, 0.4000,
  Until: 20:30, 0.4000,
  Until: 20:31, 0.4000,
  Until: 20:32, 0.4000,
  Until: 20:33, 0.4000,
  Until: 20:34, 0.4000,
  Until: 20:35, 0.4000,
  Until: 20:36, 0.4000,
  Until: 20:37, 0.4000,
  Until: 20:38, 0.4000,
  Until: 20:39, 0.4000,
  Until: 20:40, 0.4000,
  Until: 20:41, 0.4000,
  Until: 20:42, 0.4000,
  Until: 20:43, 0.4000,
  Until: 20:44, 0.4000,
  Until: 20:45, 0.4000,
  Until: 20:46, 0.4000,
  Until: 20:47, 0.4000,
  Until: 20:48, 0.4000,
  Until: 20:49, 0.4000,
  Until: 20:50, 0.4000,
  Until: 20:51, 0.4000,
  Until: 20:52, 0.4000,
  Until: 20:53, 0.4000,
  Until: 20:54, 0.4000,
  Until: 20:55, 0.4000,
  Until: 20:56, 0.4000,
  Until: 20:57, 0.4000,
  Until: 20:58, 0.4000,
  Until: 20:59, 0.4000,
  Until: 20:60, 0.4000,
  Until: 21:01, 0.4000,
  Until: 21:02, 0.4000,
  Until: 21:03, 0.4000,
  Until: 21:04, 0.4000,
  Until: 21:05, 0.4000,
  Until: 21:06, 0.4000,
  Until: 21:07, 0.4000,
  Until: 21:08, 0.4000,
  Until: 21:09, 0.4000,
  Until: 21:10, 0.4000,
  Until: 21:11, 0.4000,
  Until: 21:12, 0.4000,
  Until: 21:13, 0.4000,
  Until: 21:14, 0.4000,
  Until: 21:15, 0.4000,
  Until: 21:16, 0.4000,
  Until: 21:17, 0.4000,
  Until: 21:18, 0.4000,
  Until: 21:19, 0.4000,
  Until: 21:20, 0.4000,
  Until: 21:21, 0.4000,
  Until: 21:22, 0.4000,
  Until: 21:23, 0.4000,
  Until: 21:24, 0.4000,
  Until: 21:25, 0.4000,
  Until: 21:26, 0.4000,
  Until: 21:27, 0.4000,
  Until: 21:28, 0.4000,
  Until: 21:29, 0.4000,
  Until: 21:30, 0.4000,
  Until: 21:31, 0.4000,
  Until: 21:32, 0.4000,
  Until: 21:33, 0.4000,
  Until: 21:34, 0.4000,
  Until: 21:35, 0.4000,
  Until: 21:36, 0.4000,
  Until: 21:37, 0.4000,
  Until: 21:38, 0.4000,
  Until: 21:39, 0.4000,
  Until: 21:40, 0.4000,
  Until: 21:41, 0.4000,
  Until: 21:42, 0.4000,
  Until: 21:43, 0.4000,
  Until: 21:44, 0.4000,
  Until: 21:45, 0.4000,
  Until: 21:46, 0.4000,
  Until: 21:47, 0.4000,
  Until: 21:48, 0.4000,
  Until: 21:49, 0.4000,
  Until: 21:50, 0.4000,
  Until: 21:51, 0.4000,
  Until: 21:52, 0.4000,
  Until: 21:53, 0.4000,
  Until: 21:54, 0.4000,
  Until: 21:55, 0.4000,
  Until: 21:56, 0.4000,
  Until: 21:57, 0.4000,
  Until: 21:58, 0.4000,
  Until: 21:59, 0.4000,
  Until: 21:60, 0.4000,
  Until: 22:01, 0.4000,
  Until: 22:02, 0.4000,
  Until: 22:03, 0.4000,
  Until: 22:04, 0.4000,
  Until: 22:05, 0.4000,
  Until: 22:06, 0.4000,
  Until: 22:07, 0.4000,
  Until: 22:08, 0.4000,
  Until: 22:09, 0.4000,
  Until: 22:10, 0.4000,
  Until: 22:11, 0.4000,
  Until: 22:12, 0.4000,
  Until: 22:13, 0.4000,
  Until: 22:14, 0.4000,
  Until: 22:15, 0.4000,
  Until: 22:16, 0.4000,
  Until: 22:17, 0.4000,
  Until: 22:18, 0.4000,
  Until: 22:19, 0.4000,
  Until: 22:20, 0.4000,
  Until: 22:21, 0.4000,
  Until: 22:22, 0.4000,
  Until: 22:23, 0.4000,
  Until: 22:24, 0.4000,
  Until: 22:25, 0.4000,
  Until: 22:26, 0.4000,
  Until: 22:27, 0.4000,
  Until: 22:28, 0.4000,
  Until: 22:29, 0.4000,
  Until: 22:30, 0.4000,
  Until: 22:31, 0.4000,
  Until: 22:32, 0.4000,
  Until: 22:33, 0.4000,
  Until: 22:34, 0.4000,
  Until: 22:35, 0.4000,
  Until: 22:36, 0.4000,
  Until: 22:37, 0.4000,
  Until: 22:38, 0.4000,
  Until: 22:39, 0.4000,
  Until: 22:40, 0.4000,
  Until: 22:41, 0.4000,
  Until: 22:42, 0.4000,
  Until: 22:43, 0.4000,
  Until: 22:44, 0.4000,
  Until: 22:45, 0.4000,
  Until: 22:46, 0.4000,
  Until: 22:47, 0.4000,
  Until: 22:48, 0.4000,
  Until: 22:49, 0.4000,
  Until: 22:50, 0.4000,
  Until: 22:51, 0.4000,
  Until: 22:52, 0.4000,
  Until: 22:53, 0.4000,
  Until: 22:54, 0.4000,
  Until: 22:55, 0.4000,
  Until: 22:56, 0.4000,
  Until: 22:57, 0.4000,
  Until: 22:58, 0.4000,
  Until: 22:59, 0.4000,
  Until: 22:60, 0.4000,
  Until: 23:01, 0.4000,
  Until: 23:02, 0.4000,
  Until: 23:03, 0.4000,
  Until: 23:04, 0.4000,
  Until: 23:05, 0.4000,
  Until: 23:06, 0.4000,
  Until: 23:07, 0.4000,
  Until: 23:08, 0.4000,
  Until: 23:09, 0.4000,
  Until: 23:10, 0.4000,
  Until: 23:11, 0.4000,
  Until: 23:12, 0.4000,
  Until: 23:13, 0.4000,
  Until: 23:14, 0.4000,
  Until: 23:15, 0.4000,
  Until: 23:16, 0.4000,
  Until: 23:17, 0.4000,
  Until: 23:18, 0.4000,
  Until: 23:19, 0.4000,
  Until: 23:20, 0.4000,
  Until: 23:21, 0.4000,
  Until: 23:22, 0.4000,
  Until: 23:23, 0.4000,
  Until: 23:24, 0.4000,
  Until: 23:25, 0.4000,
  Until: 23:26, 0.4000,
  Until: 23:27, 0.4000,
  Until: 23:28, 0.4000,
  Until: 23:29, 0.4000,
  Until: 23:30, 0.4000,
  Until: 23:31, 0.4000,
  Until: 23:32, 0.4000,
  Until: 23:33, 0.4000,
  Until: 23:34, 0.4000,
  Until: 23:35, 0.4000,
  Until: 23:36, 0.4000,
  Until: 23:37, 0.4000,
  Until: 23:38, 0.4000,
  Until: 23:39, 0.4000,
  Until: 23:40, 0.4000,
  Until: 23:41, 0.4000,
  Until: 23:42, 0.4000,
  Until: 23:43, 0.4000,
  Until: 23:44, 0.4000,
  Until: 23:45, 0.4000,
  Until: 23:46, 0.4000,
  Until: 23:47, 0.4000,
  Until: 23:48, 0.4000,
  Until: 23:49, 0.4000,
  Until: 23:50, 0.4000,
  Until: 23:51, 0.4000,
  Until: 23:52, 0.4000,
  Until: 23:53, 0.4000,
  Until: 23:54, 0.4000,
  Until: 23:55, 0.4000,
  Until: 23:56, 0.4000,
  Until: 23:57, 0.4000,
  Until: 23:58, 0.4000,
  Until: 23:59, 0.4000,
  Until: 24:00, 0.4000;


RunPeriod,
    V6_ValidationDay,        !- Name
    1,                       !- Begin Month
    1,                       !- Begin Day of Month
    1997,                    !- Begin Year
    1,                       !- End Month
    1,                       !- End Day of Month
    1997,                    !- End Year
    Wednesday,               !- Day of Week for Start Day
    No,                      !- Use Weather File Holidays and Special Days
    No,                      !- Use Weather File Daylight Saving Period
    No,                      !- Apply Weekend Holiday Rule
    No,                      !- Use Weather File Rain Indicators
    No;                      !- Use Weather File Snow Indicators

ZoneInfiltration:DesignFlowRate,

  Chamber_Infiltration,                   !- Name
  Chamber,                                !- Zone or ZoneList or Space or SpaceList Name
  ,                                       !- Schedule Name
  AirChanges/Hour,                        !- Design Flow Rate Calculation Method
  ,                                       !- Design Flow Rate {m3/s}
  ,                                       !- Flow Rate per Floor Area {m3/s-m2}
  ,                                       !- Flow Rate per Exterior Surface Area {m3/s-m2}
 0.0110,                                    !- Air Changes per Hour {1/hr}
  ,                                       !- Constant Term Coefficient
  ,                                       !- Temperature Term Coefficient
  ,                                       !- Velocity Term Coefficient
  ,                                       !- Velocity Squared Term Coefficient
  Outdoor;                                !- Density Basis

ZoneControl:Thermostat,
  Chamber_ThermalZone Thermostat,         !- Name
  Chamber_ThermalZone,                    !- Zone or ZoneList Name
  Chamber_ThermalZone Thermostat Schedule, !- Control Type Schedule Name
  ThermostatSetpoint:SingleCooling,       !- Control 1 Object Type
  Thermostat Setpoint Single Cooling 2,   !- Control 1 Name
  ,                                       !- Control 2 Object Type
  ,                                       !- Control 2 Name
  ,                                       !- Control 3 Object Type
  ,                                       !- Control 3 Name
  ,                                       !- Control 4 Object Type
  ,                                       !- Control 4 Name
  0;                                      !- Temperature Difference Between Cutout And Setpoint {deltaC}

Schedule:Compact,
  Chamber_ThermalZone Thermostat Schedule, !- Name
  Chamber_ThermalZone Thermostat Schedule Type Limits, !- Schedule Type Limits Name
  Through: 12/31,                         !- Field 1
  For: AllDays,                           !- Field 2
  Until: 24:00,                           !- Field 3
  2;                                      !- Field 4 (Single Cooling)

ScheduleTypeLimits,
  Chamber_ThermalZone Thermostat Schedule Type Limits, !- Name
  0,                                      !- Lower Limit Value {BasedOnField A3}
  4,                                      !- Upper Limit Value {BasedOnField A3}
  DISCRETE;                               !- Numeric Type

ThermostatSetpoint:SingleCooling,
  Thermostat Setpoint Single Cooling 2,   !- Name
  COOLING_SETPOINT_SCH;                   !- Cooling Setpoint Temperature Schedule Name

ScheduleTypeLimits,
  Temperature,                            !- Name
  ,                                       !- Lower Limit Value {BasedOnField A3}
  ,                                       !- Upper Limit Value {BasedOnField A3}
  Continuous,                             !- Numeric Type
  temperature;                            !- Unit Type

Schedule:Compact,
  HEATING_SETPOINT_SCH,                   !- Name
  Temperature,                            !- Schedule Type Limits Name
  Through: 12/31,                         !- Field 1
  For: AllDays,                           !- Field 2
  Until: 24:00,                           !- Field 3
  10.0;                                   !- Constant Heating Setpoint 10.0 C

Schedule:Compact,
  COOLING_SETPOINT_SCH,                   !- Name
  Temperature,                            !- Schedule Type Limits Name
  Through: 12/31,                         !- Field 1
  For: AllDays,                           !- Field 2
  Until: 13:25, 29.68,
  Until: 16:16, 20.0,
  Until: 24:00, 29.68;

                                   !- Ambient Equilibrium Setpoint 29.9 C

Schedule:Compact,
  PRE_TEST_HEAT_SOAK_SCH,                 !- Name
  Fraction,                               !- Schedule Type Limits Name
  Through: 12/31,                         !- Field 1
  For: AllDays,                           !- Field 2
  Until: 07:40,                           !- Time 1
  1.0,                                    !- Heat soak ON (00:00 to 07:40 AM)
  Until: 24:00,                           !- Time 2
  0.0;                                    !- Heat soak OFF (07:40 AM onwards)

OtherEquipment,
  Chamber_PreTest_HeatSoak,               !- Name
  None,                                   !- Fuel Type
  Chamber_ThermalZone,                    !- Zone Name
  PRE_TEST_HEAT_SOAK_SCH,                 !- Schedule Name
  EquipmentLevel,                         !- Design Level Calculation Method
  320,                                    !- Design Level {W} (320 W pre-test thermal soak to hit 29.9 C at 07:44 AM)
  ,                                       !- Power per Zone Floor Area {W/m2}
  ,                                       !- Power per Person {W/person}
  0.0,                                    !- Fraction Latent
  1.0,                                    !- Fraction Radiant
  0.0;                                    !- Fraction Lost

ZoneHVAC:EquipmentConnections,
  Chamber_ThermalZone,                    !- Zone Name
  Chamber_ThermalZone Equipment List,     !- Zone Conditioning Equipment List Name
  Chamber_ThermalZone Inlet Node List,    !- Zone Air Inlet Node or NodeList Name
  Chamber_ThermalZone Exhaust Node List,  !- Zone Air Exhaust Node or NodeList Name
  Node 2;                                 !- Zone Air Node Name

NodeList,
  Chamber_ThermalZone Inlet Node List,    !- Name
  Node 6;                                 !- Node Name 1

NodeList,
  Chamber_ThermalZone Exhaust Node List,  !- Name
  Node 5;                                 !- Node Name 1

ZoneHVAC:PackagedTerminalAirConditioner,
  Chamber_SplitAC,                        !- Name
  Always On Discrete,                     !- Availability Schedule Name
  Node 5,                                 !- Air Inlet Node Name
  Node 6,                                 !- Air Outlet Node Name
  OutdoorAir:Mixer,                       !- Outdoor Air Mixer Object Type
  Chamber_SplitAC OA Mixer,               !- Outdoor Air Mixer Name
  0.05,                                   !- Cooling Supply Air Flow Rate {m3/s} (~100 CFM)
  0.05,                                   !- Heating Supply Air Flow Rate {m3/s}
  0.05,                                   !- No Load Supply Air Flow Rate {m3/s}
  Yes,                                    !- No Load Supply Air Flow Rate Control Set To Low Speed
  0.01,                                   !- Cooling Outdoor Air Flow Rate {m3/s} (~20 CFM)
  0.01,                                   !- Heating Outdoor Air Flow Rate {m3/s}
  0.01,                                   !- No Load Outdoor Air Flow Rate {m3/s}
  Fan:OnOff,                              !- Supply Air Fan Object Type
  Fan On Off 1,                           !- Supply Air Fan Name
  Coil:Heating:Electric,                  !- Heating Coil Object Type
  Coil Heating Electric 1,                !- Heating Coil Name
  Coil:Cooling:DX:SingleSpeed,            !- Cooling Coil Object Type
  Coil Cooling DX Single Speed 1,         !- Cooling Coil Name
  DrawThrough,                            !- Fan Placement
  Always Off Discrete;                    !- Supply Air Fan Operating Mode Schedule Name (Cycling Fan & Compressor with Thermostat Cutout)

Schedule:Constant,
  Always On Discrete,                     !- Name
  OnOff,                                  !- Schedule Type Limits Name
  1;                                      !- Hourly Value

OutdoorAir:Mixer,
  Chamber_SplitAC OA Mixer,               !- Name
  Chamber_SplitAC Mixed Air Node,         !- Mixed Air Node Name
  Chamber_SplitAC OA Node,                !- Outdoor Air Stream Node Name
  Chamber_SplitAC Relief Air Node,        !- Relief Air Stream Node Name
  Node 5;                                 !- Return Air Stream Node Name

OutdoorAir:NodeList,
  Chamber_SplitAC OA Node;                !- Node or NodeList Name 1

Fan:OnOff,
  Fan On Off 1,                           !- Name
  Always On Discrete,                     !- Availability Schedule Name
  0.6,                                    !- Fan Total Efficiency
  300,                                    !- Pressure Rise {Pa}
  0.05,                                   !- Maximum Flow Rate {m3/s} (Matched to Split AC flow rate)
  0.8,                                    !- Motor Efficiency
  1,                                      !- Motor In Airstream Fraction
  Chamber_SplitAC Heating Coil Outlet Node, !- Air Inlet Node Name
  Node 6,                                 !- Air Outlet Node Name
  Fan On Off Power Curve,                 !- Fan Power Ratio Function of Speed Ratio Curve Name
  Fan On Off Efficiency Curve,            !- Fan Efficiency Ratio Function of Speed Ratio Curve Name
  General;                                !- End-Use Subcategory

Curve:Exponent,
  Fan On Off Power Curve,                 !- Name
  1,                                      !- Coefficient1 Constant
  0,                                      !- Coefficient2 Constant
  0,                                      !- Coefficient3 Constant
  0,                                      !- Minimum Value of x {BasedOnField A2}
  1;                                      !- Maximum Value of x {BasedOnField A2}

Curve:Cubic,
  Fan On Off Efficiency Curve,            !- Name
  1,                                      !- Coefficient1 Constant
  0,                                      !- Coefficient2 x
  0,                                      !- Coefficient3 x**2
  0,                                      !- Coefficient4 x**3
  0,                                      !- Minimum Value of x {BasedOnField A2}
  1;                                      !- Maximum Value of x {BasedOnField A2}

Coil:Heating:Electric,
  Coil Heating Electric 1,                !- Name
  Always Off Discrete,                    !- Availability Schedule Name
  1,                                      !- Efficiency
  0,                                      !- Nominal Capacity {W} (Disabled - Real Rig Heater is OFF)
  Chamber_SplitAC Cooling Coil Outlet Node, !- Air Inlet Node Name
  Chamber_SplitAC Heating Coil Outlet Node; !- Air Outlet Node Name

Curve:Biquadratic,
  Curve Biquadratic 1,                    !- Name
  0.942587793,                            !- Coefficient1 Constant
  0.009543347,                            !- Coefficient2 x
  0.00068377,                             !- Coefficient3 x**2
  -0.011042676,                           !- Coefficient4 y
  5.249e-06,                              !- Coefficient5 y**2
  -9.72e-06,                              !- Coefficient6 x*y
  17,                                     !- Minimum Value of x {BasedOnField A2}
  22,                                     !- Maximum Value of x {BasedOnField A2}
  13,                                     !- Minimum Value of y {BasedOnField A3}
  46;                                     !- Maximum Value of y {BasedOnField A3}

Curve:Quadratic,
  Curve Quadratic 1,                      !- Name
  0.8,                                    !- Coefficient1 Constant
  0.2,                                    !- Coefficient2 x
  0,                                      !- Coefficient3 x**2
  0.5,                                    !- Minimum Value of x {BasedOnField A2}
  1.5;                                    !- Maximum Value of x {BasedOnField A2}

Curve:Biquadratic,
  Curve Biquadratic 2,                    !- Name
  0.342414409,                            !- Coefficient1 Constant
  0.034885008,                            !- Coefficient2 x
  -0.0006237,                             !- Coefficient3 x**2
  0.004977216,                            !- Coefficient4 y
  0.000437951,                            !- Coefficient5 y**2
  -0.000728028,                           !- Coefficient6 x*y
  17,                                     !- Minimum Value of x {BasedOnField A2}
  22,                                     !- Maximum Value of x {BasedOnField A2}
  13,                                     !- Minimum Value of y {BasedOnField A3}
  46;                                     !- Maximum Value of y {BasedOnField A3}

Curve:Quadratic,
  Curve Quadratic 2,                      !- Name
  1.1552,                                 !- Coefficient1 Constant
  -0.1808,                                !- Coefficient2 x
  0.0256,                                 !- Coefficient3 x**2
  0.5,                                    !- Minimum Value of x {BasedOnField A2}
  1.5;                                    !- Maximum Value of x {BasedOnField A2}

Curve:Quadratic,
  Curve Quadratic 3,                      !- Name
  0.85,                                   !- Coefficient1 Constant
  0.15,                                   !- Coefficient2 x
  0,                                      !- Coefficient3 x**2
  0,                                      !- Minimum Value of x {BasedOnField A2}
  1;                                      !- Maximum Value of x {BasedOnField A2}

Coil:Cooling:DX:SingleSpeed,
  Coil Cooling DX Single Speed 1,         !- Name
  Always On Discrete,                     !- Availability Schedule Name
  400,                                    !- Gross Rated Total Cooling Capacity {W} (Matched to Chamber pulldown rate)
  0.90,                                   !- Gross Rated Sensible Heat Ratio
  3.2,                                    !- Gross Rated Cooling COP {W/W}
  0.04,                                   !- Rated Air Flow Rate {m3/s}
  773.3,                                  !- Rated Evaporator Fan Power Per Volume Flow Rate 2017 {W/(m3/s)}
  934.4,                                  !- Rated Evaporator Fan Power Per Volume Flow Rate 2023 {W/(m3/s)}
  Chamber_SplitAC Mixed Air Node,         !- Air Inlet Node Name
  Chamber_SplitAC Cooling Coil Outlet Node, !- Air Outlet Node Name
  Curve Biquadratic 1,                    !- Total Cooling Capacity Function of Temperature Curve Name
  Curve Quadratic 1,                      !- Total Cooling Capacity Function of Flow Fraction Curve Name
  Curve Biquadratic 2,                    !- Energy Input Ratio Function of Temperature Curve Name
  Curve Quadratic 2,                      !- Energy Input Ratio Function of Flow Fraction Curve Name
  Curve Quadratic 3,                      !- Part Load Fraction Correlation Curve Name
  -25,                                    !- Minimum Outdoor Dry-Bulb Temperature for Compressor Operation {C}
  0,                                      !- Nominal Time for Condensate Removal to Begin {s}
  0,                                      !- Ratio of Initial Moisture Evaporation Rate and Steady State Latent Capacity {dimensionless}
  0,                                      !- Maximum Cycling Rate {cycles/hr}
  0,                                      !- Latent Capacity Time Constant {s}
  ,                                       !- Condenser Air Inlet Node Name
  AirCooled,                              !- Condenser Type
  0.9,                                    !- Evaporative Condenser Effectiveness {dimensionless}
  Autosize,                               !- Evaporative Condenser Air Flow Rate {m3/s}
  Autosize,                               !- Evaporative Condenser Pump Rated Power Consumption {W}
  0,                                      !- Crankcase Heater Capacity {W}
  ,                                       !- Crankcase Heater Capacity Function of Temperature Curve Name
  10,                                     !- Maximum Outdoor Dry-Bulb Temperature for Crankcase Heater Operation {C}
  ,                                       !- Supply Water Storage Tank Name
  ,                                       !- Condensate Collection Water Storage Tank Name
  0,                                      !- Basin Heater Capacity {W/K}
  2;                                      !- Basin Heater Setpoint Temperature {C}

Schedule:Constant,
  Always Off Discrete,                    !- Name
  OnOff 1,                                !- Schedule Type Limits Name
  0;                                      !- Hourly Value

ZoneHVAC:IdealLoadsAirSystem,
  Chamber_IdealLoads,                     !- Name
  Always On Discrete,                     !- Availability Schedule Name
  Node 6,                                 !- Zone Supply Air Node Name
  Node 5,                                 !- Zone Exhaust Air Node Name
  ,                                       !- System Inlet Air Node Name
  ,                                       !- Maximum Heating Supply Air Temperature {C}
  16.0,                                   !- Minimum Cooling Supply Air Temperature {C} (16 C AC Supply Vent Air)
  ,                                       !- Maximum Heating Supply Air Humidity Ratio
  ,                                       !- Minimum Cooling Supply Air Humidity Ratio
  NoLimit,                                !- Heating Limit
  ,                                       !- Maximum Heating Air Flow Rate {m3/s}
  0,                                      !- Maximum Sensible Heating Capacity {W}
  LimitFlowRateAndCapacity,               !- Cooling Limit
  0.095033,                               !- Maximum Cooling Air Flow Rate {m3/s}
  600.0,                                  !- Maximum Total Cooling Capacity {W}
  ,                                       !- Heating Availability Schedule Name
  COOLING_AVAILABILITY_SCH,               !- Cooling Availability Schedule Name
  None,                                   !- Dehumidification Control Type
  0.85,                                   !- Cooling Sensible Heat Ratio
  None,                                   !- Humidification Control Type
  Chamber_OutdoorAir,                     !- Design Specification Outdoor Air Object Name
  ,                                       !- Outdoor Air Inlet Node Name
  ,                                       !- Demand Controlled Ventilation Type
  ,                                       !- Outdoor Air Economizer Type
  ,                                       !- Heat Recovery Type
  ,                                       !- Sensible Heat Recovery Effectiveness
  ,                                       !- Latent Heat Recovery Effectiveness
  ,                                       !- Design Specification Zone Air Distribution Object Name
  SUPPLY_FLOW_FRACTION_SCH;                     !- Design Specification Outdoor Air Object Name

ZoneHVAC:EquipmentList,
  Chamber_ThermalZone Equipment List,     !- Name
  SequentialLoad,                         !- Load Distribution Scheme
  ZoneHVAC:IdealLoadsAirSystem,           !- Zone Equipment Object Type 1
  Chamber_IdealLoads,                     !- Zone Equipment Name 1
  1,                                      !- Zone Equipment Cooling Sequence 1
  1;                                      !- Zone Equipment Heating or No-Load Sequence 1

DesignSpecification:OutdoorAir,
  Chamber_OutdoorAir,                     !- Name
  Flow/Zone,                              !- Outdoor Air Method
  0,                                      !- Outdoor Air Flow per Person {m3/s-person}
  0,                                      !- Outdoor Air Flow per Zone Floor Area {m3/s-m2}
  0.095033,                               !- Outdoor Air Flow per Zone {m3/s}
  0,                                      !- Outdoor Air Flow Air Changes per Hour {1/hr}
  OUTDOOR_AIR_FRACTION_SCH;                          !- Outdoor Air Schedule Name

Zone,
  Hanger_ThermalZone,                     !- Name
  ,                                       !- Direction of Relative North {deg}
  0,                                      !- X Origin {m}
  0,                                      !- Y Origin {m}
  0,                                      !- Z Origin {m}
  ,                                       !- Type
  1,                                      !- Multiplier
  ,                                       !- Ceiling Height {m}
  ,                                       !- Volume {m3}
  ,                                       !- Floor Area {m2}
  ,                                       !- Zone Inside Convection Algorithm
  ,                                       !- Zone Outside Convection Algorithm
  Yes;                                    !- Part of Total Floor Area

Space,
  Hanger,                                 !- Name
  Hanger_ThermalZone,                     !- Zone Name
  ,                                       !- Ceiling Height {m}
  ,                                       !- Volume {m3}
  ;                                       !- Floor Area {m2}

BuildingSurface:Detailed,
  Hanger_Floor,                           !- Name
  Floor,                                  !- Surface Type
  Const_M15_200mm_heavyweight_concrete,   !- Construction Name
  Hanger_ThermalZone,                     !- Zone Name
  Hanger,                                 !- Space Name
  Ground,                                 !- Outside Boundary Condition
  ,                                       !- Outside Boundary Condition Object
  NoSun,                                  !- Sun Exposure
  NoWind,                                 !- Wind Exposure
  ,                                       !- View Factor to Ground
  ,                                       !- Number of Vertices
  0, 17, 0,                               !- X,Y,Z Vertex 1 {m}
  80, 17, 0,                              !- X,Y,Z Vertex 2 {m}
  80, 0, 0,                               !- X,Y,Z Vertex 3 {m}
  0, 0, 0;                                !- X,Y,Z Vertex 4 {m}

BuildingSurface:Detailed,
  Hanger_Gable_East,                      !- Name
  Wall,                                   !- Surface Type
  Const_Composite_2x4_Wood_Stud_R11__3_Composite_2x4_Wood_Stud_R11__2_Composite_2x4_Wood_Stud_R11__1, !- Construction Name
  Hanger_ThermalZone,                     !- Zone Name
  Hanger,                                 !- Space Name
  Outdoors,                               !- Outside Boundary Condition
  ,                                       !- Outside Boundary Condition Object
  SunExposed,                             !- Sun Exposure
  WindExposed,                            !- Wind Exposure
  ,                                       !- View Factor to Ground
  ,                                       !- Number of Vertices
  80, 0, 12,                              !- X,Y,Z Vertex 1 {m}
  80, 17, 12,                             !- X,Y,Z Vertex 2 {m}
  80, 8.5, 14;                            !- X,Y,Z Vertex 3 {m}

BuildingSurface:Detailed,
  Hanger_Gable_West,                      !- Name
  Wall,                                   !- Surface Type
  Const_Composite_2x4_Wood_Stud_R11__3_Composite_2x4_Wood_Stud_R11__2_Composite_2x4_Wood_Stud_R11__1, !- Construction Name
  Hanger_ThermalZone,                     !- Zone Name
  Hanger,                                 !- Space Name
  Outdoors,                               !- Outside Boundary Condition
  ,                                       !- Outside Boundary Condition Object
  SunExposed,                             !- Sun Exposure
  WindExposed,                            !- Wind Exposure
  ,                                       !- View Factor to Ground
  ,                                       !- Number of Vertices
  0, 17, 12,                              !- X,Y,Z Vertex 1 {m}
  0, 0, 12,                               !- X,Y,Z Vertex 2 {m}
  0, 8.5, 14;                             !- X,Y,Z Vertex 3 {m}

BuildingSurface:Detailed,
  Hanger_Roof_North,                      !- Name
  Roof,                                   !- Surface Type
  Const_Composite_2x4_Wood_Stud_R11__3_Composite_2x4_Wood_Stud_R11__2_Composite_2x4_Wood_Stud_R11__1, !- Construction Name
  Hanger_ThermalZone,                     !- Zone Name
  Hanger,                                 !- Space Name
  Outdoors,                               !- Outside Boundary Condition
  ,                                       !- Outside Boundary Condition Object
  SunExposed,                             !- Sun Exposure
  WindExposed,                            !- Wind Exposure
  ,                                       !- View Factor to Ground
  ,                                       !- Number of Vertices
  80, 17, 12,                             !- X,Y,Z Vertex 1 {m}
  0, 17, 12,                              !- X,Y,Z Vertex 2 {m}
  0, 8.5, 14,                             !- X,Y,Z Vertex 3 {m}
  80, 8.5, 14;                            !- X,Y,Z Vertex 4 {m}

BuildingSurface:Detailed,
  Hanger_Roof_South,                      !- Name
  Roof,                                   !- Surface Type
  Const_Composite_2x4_Wood_Stud_R11__3_Composite_2x4_Wood_Stud_R11__2_Composite_2x4_Wood_Stud_R11__1, !- Construction Name
  Hanger_ThermalZone,                     !- Zone Name
  Hanger,                                 !- Space Name
  Outdoors,                               !- Outside Boundary Condition
  ,                                       !- Outside Boundary Condition Object
  SunExposed,                             !- Sun Exposure
  WindExposed,                            !- Wind Exposure
  ,                                       !- View Factor to Ground
  ,                                       !- Number of Vertices
  0, 0, 12,                               !- X,Y,Z Vertex 1 {m}
  80, 0, 12,                              !- X,Y,Z Vertex 2 {m}
  80, 8.5, 14,                            !- X,Y,Z Vertex 3 {m}
  0, 8.5, 14;                             !- X,Y,Z Vertex 4 {m}

BuildingSurface:Detailed,
  Hanger_Wall_East,                       !- Name
  Wall,                                   !- Surface Type
  Const_M01_100mm_brick,                  !- Construction Name
  Hanger_ThermalZone,                     !- Zone Name
  Hanger,                                 !- Space Name
  Outdoors,                               !- Outside Boundary Condition
  ,                                       !- Outside Boundary Condition Object
  SunExposed,                             !- Sun Exposure
  WindExposed,                            !- Wind Exposure
  ,                                       !- View Factor to Ground
  ,                                       !- Number of Vertices
  80, 0, 0,                               !- X,Y,Z Vertex 1 {m}
  80, 17, 0,                              !- X,Y,Z Vertex 2 {m}
  80, 17, 12,                             !- X,Y,Z Vertex 3 {m}
  80, 0, 12;                              !- X,Y,Z Vertex 4 {m}

BuildingSurface:Detailed,
  Hanger_Wall_North,                      !- Name
  Wall,                                   !- Surface Type
  Const_M01_100mm_brick,                  !- Construction Name
  Hanger_ThermalZone,                     !- Zone Name
  Hanger,                                 !- Space Name
  Outdoors,                               !- Outside Boundary Condition
  ,                                       !- Outside Boundary Condition Object
  SunExposed,                             !- Sun Exposure
  WindExposed,                            !- Wind Exposure
  ,                                       !- View Factor to Ground
  ,                                       !- Number of Vertices
  80, 17, 0,                              !- X,Y,Z Vertex 1 {m}
  0, 17, 0,                               !- X,Y,Z Vertex 2 {m}
  0, 17, 12,                              !- X,Y,Z Vertex 3 {m}
  80, 17, 12;                             !- X,Y,Z Vertex 4 {m}

BuildingSurface:Detailed,
  Hanger_Wall_South,                      !- Name
  Wall,                                   !- Surface Type
  Const_M01_100mm_brick,                  !- Construction Name
  Hanger_ThermalZone,                     !- Zone Name
  Hanger,                                 !- Space Name
  Outdoors,                               !- Outside Boundary Condition
  ,                                       !- Outside Boundary Condition Object
  SunExposed,                             !- Sun Exposure
  WindExposed,                            !- Wind Exposure
  ,                                       !- View Factor to Ground
  ,                                       !- Number of Vertices
  0, 0, 0,                                !- X,Y,Z Vertex 1 {m}
  80, 0, 0,                               !- X,Y,Z Vertex 2 {m}
  80, 0, 12,                              !- X,Y,Z Vertex 3 {m}
  0, 0, 12;                               !- X,Y,Z Vertex 4 {m}

BuildingSurface:Detailed,
  Hanger_Wall_West,                       !- Name
  Wall,                                   !- Surface Type
  Const_M01_100mm_brick,                  !- Construction Name
  Hanger_ThermalZone,                     !- Zone Name
  Hanger,                                 !- Space Name
  Outdoors,                               !- Outside Boundary Condition
  ,                                       !- Outside Boundary Condition Object
  SunExposed,                             !- Sun Exposure
  WindExposed,                            !- Wind Exposure
  ,                                       !- View Factor to Ground
  ,                                       !- Number of Vertices
  0, 17, 0,                               !- X,Y,Z Vertex 1 {m}
  0, 0, 0,                                !- X,Y,Z Vertex 2 {m}
  0, 0, 12,                               !- X,Y,Z Vertex 3 {m}
  0, 17, 12;                              !- X,Y,Z Vertex 4 {m}

Lights,
  Hanger_Lights,                          !- Name
  Hanger,                                 !- Zone or ZoneList or Space or SpaceList Name
  LIGHTING_SCH,                           !- Schedule Name
  Watts/Area,                             !- Design Level Calculation Method
  ,                                       !- Lighting Level {W}
  8,                                      !- Watts per Floor Area {W/m2}
  ,                                       !- Watts per Person {W/person}
  ,                                       !- Return Air Fraction
  ,                                       !- Fraction Radiant
  ,                                       !- Fraction Visible
  1,                                      !- Fraction Replaceable
  General;                                !- End-Use Subcategory

People,
  Hanger_People,                          !- Name
  Hanger,                                 !- Zone or ZoneList or Space or SpaceList Name
  OCCUPANCY_SCH,                          !- Number of People Schedule Name
  Area/Person,                            !- Number of People Calculation Method
  ,                                       !- Number of People
  ,                                       !- People per Floor Area {person/m2}
  15,                                     !- Floor Area per Person {m2/person}
  0.3,                                    !- Fraction Radiant
  ,                                       !- Sensible Heat Fraction
  ACTIVITY_LEVEL_SCH;                     !- Activity Level Schedule Name

ElectricEquipment,
  Hanger_Equip,                           !- Name
  Hanger,                                 !- Zone or ZoneList or Space or SpaceList Name
  EQUIPMENT_SCH,                          !- Schedule Name
  Watts/Area,                             !- Design Level Calculation Method
  ,                                       !- Design Level {W}
  10,                                     !- Watts per Floor Area {W/m2}
  ,                                       !- Watts per Person {W/person}
  ,                                       !- Fraction Latent
  ,                                       !- Fraction Radiant
  ,                                       !- Fraction Lost
  General;                                !- End-Use Subcategory

ZoneInfiltration:DesignFlowRate,

  Hanger_Infiltration,                    !- Name
  Hanger,                                 !- Zone or ZoneList or Space or SpaceList Name
  ,                                       !- Schedule Name
  AirChanges/Hour,                        !- Design Flow Rate Calculation Method
  ,                                       !- Design Flow Rate {m3/s}
  ,                                       !- Flow Rate per Floor Area {m3/s-m2}
  ,                                       !- Flow Rate per Exterior Surface Area {m3/s-m2}
 0.5000,                                    !- Air Changes per Hour {1/hr}
  ,                                       !- Constant Term Coefficient
  ,                                       !- Temperature Term Coefficient
  ,                                       !- Velocity Term Coefficient
  ,                                       !- Velocity Squared Term Coefficient
  Outdoor;                                !- Density Basis

ZoneControl:Thermostat,
  Hanger_ThermalZone Thermostat,          !- Name
  Hanger_ThermalZone,                     !- Zone or ZoneList Name
  Hanger_ThermalZone Thermostat Schedule, !- Control Type Schedule Name
  ThermostatSetpoint:DualSetpoint,        !- Control 1 Object Type
  Thermostat Setpoint Dual Setpoint 1,    !- Control 1 Name
  ,                                       !- Control 2 Object Type
  ,                                       !- Control 2 Name
  ,                                       !- Control 3 Object Type
  ,                                       !- Control 3 Name
  ,                                       !- Control 4 Object Type
  ,                                       !- Control 4 Name
  0;                                      !- Temperature Difference Between Cutout And Setpoint {deltaC}

Schedule:Compact,
  Hanger_ThermalZone Thermostat Schedule, !- Name
  Hanger_ThermalZone Thermostat Schedule Type Limits, !- Schedule Type Limits Name
  Through: 12/31,                         !- Field 1
  For: AllDays,                           !- Field 2
  Until: 24:00,                           !- Field 3
  4;                                      !- Field 4

ScheduleTypeLimits,
  Hanger_ThermalZone Thermostat Schedule Type Limits, !- Name
  0,                                      !- Lower Limit Value {BasedOnField A3}
  4,                                      !- Upper Limit Value {BasedOnField A3}
  DISCRETE;                               !- Numeric Type

ThermostatSetpoint:DualSetpoint,
  Thermostat Setpoint Dual Setpoint 1,    !- Name
  HEATING_SETPOINT_SCH,                   !- Heating Setpoint Temperature Schedule Name
  COOLING_SETPOINT_SCH;                   !- Cooling Setpoint Temperature Schedule Name

ZoneHVAC:EquipmentConnections,
  Hanger_ThermalZone,                     !- Zone Name
  Hanger_ThermalZone Equipment List,      !- Zone Conditioning Equipment List Name
  Hanger_ThermalZone Inlet Node List,     !- Zone Air Inlet Node or NodeList Name
  Hanger_ThermalZone Exhaust Node List,   !- Zone Air Exhaust Node or NodeList Name
  Node 1;                                 !- Zone Air Node Name

NodeList,
  Hanger_ThermalZone Inlet Node List,     !- Name
  Node 4;                                 !- Node Name 1

NodeList,
  Hanger_ThermalZone Exhaust Node List,   !- Name
  Node 3;                                 !- Node Name 1

ZoneHVAC:IdealLoadsAirSystem,
  Hanger_IdealLoads,                      !- Name
  Always Off Discrete,                    !- Availability Schedule Name (Disabled - Hanger is unconditioned ambient space)
  Node 4,                                 !- Zone Supply Air Node Name
  Node 3,                                 !- Zone Exhaust Air Node Name
  ,                                       !- System Inlet Air Node Name
  ,                                       !- Maximum Heating Supply Air Temperature {C}
  ,                                       !- Minimum Cooling Supply Air Temperature {C}
  ,                                       !- Maximum Heating Supply Air Humidity Ratio {kgWater/kgDryAir}
  ,                                       !- Minimum Cooling Supply Air Humidity Ratio {kgWater/kgDryAir}
  ,                                       !- Heating Limit
  ,                                       !- Maximum Heating Air Flow Rate {m3/s}
  ,                                       !- Maximum Sensible Heating Capacity {W}
  ,                                       !- Cooling Limit
  ,                                       !- Maximum Cooling Air Flow Rate {m3/s}
  ,                                       !- Maximum Total Cooling Capacity {W}
  ,                                       !- Heating Availability Schedule Name
  ,                                       !- Cooling Availability Schedule Name
  ,                                       !- Dehumidification Control Type
  ,                                       !- Cooling Sensible Heat Ratio {dimensionless}
  ,                                       !- Humidification Control Type
  Hanger_OutdoorAir,                      !- Design Specification Outdoor Air Object Name
  ,                                       !- Outdoor Air Inlet Node Name
  ,                                       !- Demand Controlled Ventilation Type
  ,                                       !- Outdoor Air Economizer Type
  ,                                       !- Heat Recovery Type
  ,                                       !- Sensible Heat Recovery Effectiveness {dimensionless}
  ;                                       !- Latent Heat Recovery Effectiveness {dimensionless}

DesignSpecification:OutdoorAir,
  Hanger_OutdoorAir,                      !- Name
  Sum,                                    !- Outdoor Air Method
  0,                                      !- Outdoor Air Flow per Person {m3/s-person}
  0,                                      !- Outdoor Air Flow per Zone Floor Area {m3/s-m2}
  0,                                      !- Outdoor Air Flow per Zone {m3/s}
  0,                                      !- Outdoor Air Flow Air Changes per Hour {1/hr}
  OCCUPANCY_SCH;                          !- Outdoor Air Schedule Name

ZoneHVAC:EquipmentList,
  Hanger_ThermalZone Equipment List,      !- Name
  SequentialLoad,                         !- Load Distribution Scheme
  ZoneHVAC:IdealLoadsAirSystem,           !- Zone Equipment Object Type 1
  Hanger_IdealLoads,                      !- Zone Equipment Name 1
  1,                                      !- Zone Equipment Cooling Sequence 1
  1,                                      !- Zone Equipment Heating or No-Load Sequence 1
  ,                                       !- Zone Equipment Sequential Cooling Fraction Schedule Name 1
  ;                                       !- Zone Equipment Sequential Heating Fraction Schedule Name 1                                       !- Maximum Number of HVAC Sizing Simulation Passes                                   !- Cooling Sizing Factor

                                    !- Use Weather File Snow Indicators

Output:Table:SummaryReports,
  AllSummary;                             !- Report Name 1                               !- Rectangular Surface Coordinate System

Material,
  Composite 2x4 Wood Stud R11 #1,         !- Name
  Smooth,                                 !- Roughness
  0.019,                                  !- Thickness {m}
  0.186,                                  !- Conductivity {W/m-K}
  640,                                    !- Density {kg/m3}
  1048,                                   !- Specific Heat {J/kg-K}
  0.9,                                    !- Thermal Absorptance
  0.7,                                    !- Solar Absorptance
  0.7;                                    !- Visible Absorptance

Material,
  Composite 2x4 Wood Stud R11 #2,         !- Name
  Smooth,                                 !- Roughness
  0.083,                                  !- Thickness {m}
  0.049,                                  !- Conductivity {W/m-K}
  119.63,                                 !- Density {kg/m3}
  1048,                                   !- Specific Heat {J/kg-K}
  0.9,                                    !- Thermal Absorptance
  0.7,                                    !- Solar Absorptance
  0.7;                                    !- Visible Absorptance

Material,
  Composite 2x4 Wood Stud R11 #3,         !- Name
  Smooth,                                 !- Roughness
  0.025,                                  !- Thickness {m}
  0.124,                                  !- Conductivity {W/m-K}
  508.45,                                 !- Density {kg/m3}
  1048,                                   !- Specific Heat {J/kg-K}
  0.9,                                    !- Thermal Absorptance
  0.7,                                    !- Solar Absorptance
  0.7;                                    !- Visible Absorptance

Material,
  M01 100mm brick,                        !- Name
  MediumRough,                            !- Roughness
  0.1016,                                 !- Thickness {m}
  0.89,                                   !- Conductivity {W/m-K}
  1920,                                   !- Density {kg/m3}
  790,                                    !- Specific Heat {J/kg-K}
  0.9,                                    !- Thermal Absorptance
  0.7,                                    !- Solar Absorptance
  0.7;                                    !- Visible Absorptance

Material,
M15 200mm heavyweight concrete,         !- Name
  MediumRough,                            !- Roughness
  0.2032,                                 !- Thickness {m}
 1.3000,                                   !- Conductivity {W/m-K}
  2240,                                   !- Density {kg/m3}
  900,                                    !- Specific Heat {J/kg-K}
  0.9,                                    !- Thermal Absorptance
  0.7,                                    !- Solar Absorptance
  0.7;                                    !- Visible Absorptance

WindowMaterial:Gas,
  AIR 13MM,                               !- Name
  Air,                                    !- Gas Type
  0.0127;                                 !- Thickness {m}

WindowMaterial:Glazing,
  CLEAR 3MM,                              !- Name
  SpectralAverage,                        !- Optical Data Type
  ,                                       !- Window Glass Spectral Data Set Name
  0.003,                                  !- Thickness {m}
  0.837,                                  !- Solar Transmittance at Normal Incidence
  0.075,                                  !- Front Side Solar Reflectance at Normal Incidence
  0.075,                                  !- Back Side Solar Reflectance at Normal Incidence
  0.898,                                  !- Visible Transmittance at Normal Incidence
  0.081,                                  !- Front Side Visible Reflectance at Normal Incidence
  0.081,                                  !- Back Side Visible Reflectance at Normal Incidence
  0,                                      !- Infrared Transmittance at Normal Incidence
  0.84,                                   !- Front Side Infrared Hemispherical Emissivity
  0.84,                                   !- Back Side Infrared Hemispherical Emissivity
  0.9;                                    !- Conductivity {W/m-K}

Construction,
  Composite 2x4 Wood Stud R11,            !- Name
  Composite 2x4 Wood Stud R11 #3,         !- Layer 1
  Composite 2x4 Wood Stud R11 #2,         !- Layer 2
  Composite 2x4 Wood Stud R11 #1;         !- Layer 3

Construction,
  Const_CLEAR_3MM_AIR_13MM_CLEAR_3MM,     !- Name
  CLEAR 3MM,                              !- Layer 1
  AIR 13MM,                               !- Layer 2
  CLEAR 3MM;                              !- Layer 3

Construction,
  Const_Composite_2x4_Wood_Stud_R11__3_Composite_2x4_Wood_Stud_R11__2_Composite_2x4_Wood_Stud_R11__1, !- Name
  Composite 2x4 Wood Stud R11 #3,         !- Layer 1
  Composite 2x4 Wood Stud R11 #2,         !- Layer 2
  Composite 2x4 Wood Stud R11 #1;         !- Layer 3

Construction,
  Const_M01_100mm_brick,                  !- Name
  M01 100mm brick;                        !- Layer 1

Construction,
  Const_M15_200mm_heavyweight_concrete,   !- Name
  M15 200mm heavyweight concrete;         !- Layer 1

Construction,
  Dbl Clr 3mm/13mm Air,                   !- Name
  CLEAR 3MM,                              !- Layer 1
  AIR 13MM,                               !- Layer 2
  CLEAR 3MM;                              !- Layer 3

Schedule:Constant,
  Always On Continuous,                   !- Name
  Fractional 1,                           !- Schedule Type Limits Name
  1;                                      !- Hourly Value

ScheduleTypeLimits,
  ActivityLevel,                          !- Name
  0,                                      !- Lower Limit Value {BasedOnField A3}
  ,                                       !- Upper Limit Value {BasedOnField A3}
  Continuous,                             !- Numeric Type
  activitylevel;                          !- Unit Type

ScheduleTypeLimits,
  Fractional 1,                           !- Name
  0,                                      !- Lower Limit Value {BasedOnField A3}
  1,                                      !- Upper Limit Value {BasedOnField A3}
  Continuous;                             !- Numeric Type

ScheduleTypeLimits,
  OnOff,                                  !- Name
  0,                                      !- Lower Limit Value {BasedOnField A3}
  1,                                      !- Upper Limit Value {BasedOnField A3}
  Discrete,                               !- Numeric Type
  availability;                           !- Unit Type

ScheduleTypeLimits,
  OnOff 1,                                !- Name
  0,                                      !- Lower Limit Value {BasedOnField A3}
  1,                                      !- Upper Limit Value {BasedOnField A3}
  Discrete,                               !- Numeric Type
  availability;                           !- Unit Type

OutdoorAir:Node,
  Model Outdoor Air Node;                 !- Name

OutputControl:Table:Style,
  HTML;                                   !- Column Separator

Output:VariableDictionary,
  IDF,                                    !- Key Field
  Unsorted;                               !- Sort Option
!- Option Type

LifeCycleCost:NonrecurringCost,
  Default Cost,                           !- Name
  Construction,                           !- Category
  0,                                      !- Cost
  ServicePeriod;                          !- Start of Costs

! === Sizing and Simulation Control Setup (Injected from Base.idf) ===

Sizing:Parameters,
    1.2,                     !- Heating Sizing Factor
    1.2;

Site:Location,
    PERADENIYA_SRI_LANKA,     !- Name (Department of Mechanical Engineering, Peradeniya)
    7.253468,                !- Latitude {deg}
    80.591576,               !- Longitude {deg}
    5.500000,                !- Time Zone {hr} (SLST UTC+5:30)
    475.0000;

SizingPeriod:DesignDay,
    CHICAGO_IL_USA Cooling .4% Conditions DB=>MWB,  !- Name
    7,                       !- Month
    21,                      !- Day of Month
    SummerDesignDay,         !- Day Type
    32.80000,                !- Maximum Dry-Bulb Temperature {C}
    10.90000,                !- Daily Dry-Bulb Temperature Range {deltaC}
    ,                        !- Dry-Bulb Temperature Range Modifier Type
    ,                        !- Dry-Bulb Temperature Range Modifier Day Schedule Name
    Wetbulb,                 !- Humidity Condition Type
    23.60000,                !- Wetbulb or DewPoint at Maximum Dry-Bulb {C}
    ,                        !- Humidity Condition Day Schedule Name
    ,                        !- Humidity Ratio at Maximum Dry-Bulb {kgWater/kgDryAir}
    ,                        !- Enthalpy at Maximum Dry-Bulb {J/kg}
    ,                        !- Daily Wet-Bulb Temperature Range {deltaC}
    99063.21,                !- Barometric Pressure {Pa}
    0.0,                     !- Wind Speed {m/s}
    0.0,                     !- Wind Direction {deg}
    No,                      !- Rain Indicator
    No,                      !- Snow Indicator
    No,                      !- Daylight Saving Time Indicator
    ASHRAEClearSky,          !- Solar Model Indicator
    ,                        !- Beam Solar Day Schedule Name
    ,                        !- Diffuse Solar Day Schedule Name
    ,                        !- ASHRAE Clear Sky Optical Depth for Beam Irradiance (taub) {dimensionless}
    ,                        !- ASHRAE Clear Sky Optical Depth for Diffuse Irradiance (taud) {dimensionless}
    1.000000;

SizingPeriod:DesignDay,
    CHICAGO_IL_USA Heating 99.6% Conditions,  !- Name
    1,                       !- Month
    21,                      !- Day of Month
    WinterDesignDay,         !- Day Type
    -21.20000,               !- Maximum Dry-Bulb Temperature {C}
    0.0,                     !- Daily Dry-Bulb Temperature Range {deltaC}
    ,                        !- Dry-Bulb Temperature Range Modifier Type
    ,                        !- Dry-Bulb Temperature Range Modifier Day Schedule Name
    Wetbulb,                 !- Humidity Condition Type
    -21.20000,               !- Wetbulb or DewPoint at Maximum Dry-Bulb {C}
    ,                        !- Humidity Condition Day Schedule Name
    ,                        !- Humidity Ratio at Maximum Dry-Bulb {kgWater/kgDryAir}
    ,                        !- Enthalpy at Maximum Dry-Bulb {J/kg}
    ,                        !- Daily Wet-Bulb Temperature Range {deltaC}
    99063.21,                !- Barometric Pressure {Pa}
    4.600000,                !- Wind Speed {m/s}
    270.0000,                !- Wind Direction {deg}
    No,                      !- Rain Indicator
    No,                      !- Snow Indicator
    No,                      !- Daylight Saving Time Indicator
    ASHRAEClearSky,          !- Solar Model Indicator
    ,                        !- Beam Solar Day Schedule Name
    ,                        !- Diffuse Solar Day Schedule Name
    ,                        !- ASHRAE Clear Sky Optical Depth for Beam Irradiance (taub) {dimensionless}
    ,                        !- ASHRAE Clear Sky Optical Depth for Diffuse Irradiance (taud) {dimensionless}
    0.0;

Site:GroundTemperature:BuildingSurface,18.3,18.2,18.3,18.4,20.1,22.0,22.3,22.5,22.5,20.7,18.9,18.5;

GlobalGeometryRules,
    LowerLeftCorner,         !- Starting Vertex Position
    Counterclockwise,        !- Vertex Entry Direction
    World;


  Sizing:Zone,
    Hanger_ThermalZone,             !- Zone or ZoneList Name
    SupplyAirTemperature,    !- Zone Cooling Design Supply Air Temperature Input Method
    12.,                     !- Zone Cooling Design Supply Air Temperature {C}
    ,                        !- Zone Cooling Design Supply Air Temperature Difference {deltaC}
    SupplyAirTemperature,    !- Zone Heating Design Supply Air Temperature Input Method
    50.,                     !- Zone Heating Design Supply Air Temperature {C}
    ,                        !- Zone Heating Design Supply Air Temperature Difference {deltaC}
    0.008,                   !- Zone Cooling Design Supply Air Humidity Ratio {kgWater/kgDryAir}
    0.008,                   !- Zone Heating Design Supply Air Humidity Ratio {kgWater/kgDryAir}
    Hanger_OutdoorAir,          !- Design Specification Outdoor Air Object Name
    1.2,                     !- Zone Heating Sizing Factor
    1.2;                     !- Zone Cooling Sizing Factor



  Sizing:Zone,
    Chamber_ThermalZone,             !- Zone or ZoneList Name
    SupplyAirTemperature,    !- Zone Cooling Design Supply Air Temperature Input Method
    12.,                     !- Zone Cooling Design Supply Air Temperature {C}
    ,                        !- Zone Cooling Design Supply Air Temperature Difference {deltaC}
    SupplyAirTemperature,    !- Zone Heating Design Supply Air Temperature Input Method
    50.,                     !- Zone Heating Design Supply Air Temperature {C}
    ,                        !- Zone Heating Design Supply Air Temperature Difference {deltaC}
    0.008,                   !- Zone Cooling Design Supply Air Humidity Ratio {kgWater/kgDryAir}
    0.008,                   !- Zone Heating Design Supply Air Humidity Ratio {kgWater/kgDryAir}
    Chamber_OutdoorAir,          !- Design Specification Outdoor Air Object Name
    1.2,                     !- Zone Heating Sizing Factor
    1.2;                     !- Zone Cooling Sizing Factor

  Material,
    Chamber_PU_Foam,                   !- Name
    Smooth,                            !- Roughness
    0.0110,                            !- Thickness {m}
    0.0220,                            !- Thermal Conductivity {W/m-K} (Raw Default)
    45.00,                             !- Density {kg/m3} (Raw Default)
    1500.00,                           !- Specific Heat {J/kg-K} (Raw Default)
    0.9000,                  !- Thermal Absorptance
    0.7000,                  !- Solar Absorptance
    0.7000;                  !- Visible Absorptance

  SimulationControl,
    Yes,                     !- Do Zone Sizing Calculation
    Yes,                     !- Do System Sizing Calculation
    No,                      !- Do Plant Sizing Calculation
    No,                      !- Run Simulation for Sizing Periods
    Yes,                     !- Run Simulation for Weather File Run Periods
    No,                      !- Do HVAC Sizing Simulation for Sizing Periods
    1;                       !- Maximum Number of HVAC Sizing Simulation Passes

                       !- Use Weather File Snow Indicators


  Output:SQLite,
    SimpleAndTabular;         !- Output Type

  Output:Variable,*,Zone Air Temperature,Timestep;
  Output:Variable,*,Zone Mean Air Temperature,Timestep;
  Output:Variable,*,Site Outdoor Air Drybulb Temperature,Timestep;
  Output:Variable,*,Zone Air System Sensible Cooling Energy,Timestep;
  Output:Variable,*,Zone Air System Sensible Heating Energy,Timestep;
  Output:Variable,*,System Node Mass Flow Rate,Timestep;
Output:Variable,*,Zone Ideal Loads Supply Air Mass Flow Rate,Timestep;
Output:Variable,*,Zone Ideal Loads Supply Air Temperature,Timestep;
  Output:Variable,*,Zone Mechanical Ventilation Mass Flow Rate,Timestep;
  Output:Meter,Electricity:Facility,Hourly;
  Output:Meter,NaturalGas:Facility,Hourly;

! ======================================================================
! SMARTBEM STUDIO — CALIBRATED RIG MATERIALS & CONSTRUCTIONS
! ======================================================================

  Material,
    Brick_Core_220mm,                   !- Name
    MediumRough,                        !- Roughness
    0.2200,                             !- Thickness {m} (SLS 855 Sri Lanka Standard)
    0.7700,                             !- Thermal Conductivity {W/m-K}
    1920.00,                            !- Density {kg/m3}
    840.00;                             !- Specific Heat {J/kg-K}

  Material,
    Brick_Core_105mm,                   !- Name
    MediumRough,                        !- Roughness
    0.1050,                             !- Thickness {m} (SLS 855 Sri Lanka Standard)
    0.7700,                             !- Thermal Conductivity {W/m-K}
    1920.00,                            !- Density {kg/m3}
    840.00;                             !- Specific Heat {J/kg-K}

  Material,
    Cement Plaster: Sand aggregate - 10mm, !- Name
    Smooth,                             !- Roughness
    0.0100,                             !- Thickness {m}
    0.7200,                             !- Thermal Conductivity {W/m-K}
    1860.00,                            !- Density {kg/m3}
    840.00;                             !- Specific Heat {J/kg-K}

  Material,
    Asbestos_Roof_Sheet_0.6mm,          !- Name
    Smooth,                             !- Roughness
    0.0006,                             !- Thickness {m}
    0.3500,                             !- Thermal Conductivity {W/m-K}
    1500.00,                            !- Density {kg/m3}
    840.00;                             !- Specific Heat {J/kg-K}

  Material,
    Asbestos-cement board - 3.2mm,      !- Name
    Smooth,                             !- Roughness
    0.0032,                             !- Thickness {m}
    0.5800,                             !- Thermal Conductivity {W/m-K}
    1900.00,                            !- Density {kg/m3}
    840.00;                             !- Specific Heat {J/kg-K}

  Material:AirGap,
    Roof_Air_Gap_150mm,                 !- Name
    0.160;                              !- Thermal Resistance {m2-K/W}

  Construction,
    Hanger_Outer_Wall_240mm,            !- Name
    Cement Plaster: Sand aggregate - 10mm, !- Layer 1 (Outside Plaster)
    Brick_Core_220mm,                   !- Layer 2 (SLS 855 Brick Core 220mm)
    Cement Plaster: Sand aggregate - 10mm; !- Layer 3 (Inside Plaster)

  Construction,
    Hanger_Partition_Wall_125mm,        !- Name
    Cement Plaster: Sand aggregate - 10mm, !- Layer 1 (Side 1 Plaster)
    Brick_Core_105mm,                   !- Layer 2 (SLS 855 Brick Core 105mm)
    Cement Plaster: Sand aggregate - 10mm; !- Layer 3 (Side 2 Plaster)

  Construction,
    Hanger_Roof_Assembly,               !- Name
    Asbestos_Roof_Sheet_0.6mm,          !- Layer 1 (Outer Roof Panel)
    Roof_Air_Gap_150mm,                 !- Layer 2 (150mm Air Gap)
    Asbestos-cement board - 3.2mm;      !- Layer 3 (Inner Ceiling Board)

  InternalMass,
    Hanger_Internal_Partition_Walls,    !- Name
    Hanger_Partition_Wall_125mm,        !- Construction Name
    Hanger_ThermalZone,                 !- Zone or ZoneList Name
    ,                                   !- Space Name
    350.0;                              !- Surface Area {m2} (Staff Rooms + TO Room + Seminar Room + Lab)

! ======================================================================
! SMARTBEM STUDIO — HANGER WINDOW GLAZING & INFILTRATION
! ======================================================================

  WindowMaterial:Glazing,
    CLEAR 6MM,                          !- Name
    SpectralAverage,                    !- Optical Data Type
    ,                                   !- Window Glass Spectral Data Set Name
    0.006,                              !- Thickness {m}
    0.775,                              !- Solar Transmittance at Normal Incidence
    0.071,                              !- Front Side Solar Reflectance at Normal Incidence
    0.071,                              !- Back Side Solar Reflectance at Normal Incidence
    0.881,                              !- Visible Transmittance at Normal Incidence
    0.080,                              !- Front Side Visible Reflectance at Normal Incidence
    0.080,                              !- Back Side Visible Reflectance at Normal Incidence
    0.0,                                !- Infrared Transmittance at Normal Incidence
    0.84,                               !- Front Side Infrared Hemispherical Emissivity
    0.84,                               !- Back Side Infrared Hemispherical Emissivity
    0.90;                               !- Conductivity {W/m-K}

  Construction,
    Hanger_Window_Clear6mm,             !- Name
    CLEAR 6MM;                          !- Layer 1 (EnergyPlus Default 6mm Clear Glass)

  ZoneInfiltration:DesignFlowRate,
    Hanger_Continuous_Eave_Infiltration, !- Name
    Hanger_ThermalZone,                  !- Zone or ZoneList Name
    Always On Continuous,                !- Schedule Name
    AirChanges/Hour,                     !- Design Flow Rate Calculation Method
    ,                                    !- Design Flow Rate {m3/s}
    ,                                    !- Flow per Zone Floor Area {m3/s-m2}
    ,                                    !- Flow per Exterior Surface Area {m3/s-m2}
    3.00,                                !- Air Changes per Hour {1/hr}
    1.0,                                 !- Constant Term Coefficient
    0.0,                                 !- Temperature Term Coefficient
    0.0,                                 !- Velocity Term Coefficient
    0.0;                                 !- Velocity Squared Term Coefficient

Schedule:Compact,
  FLOW_RATE_SCHEDULE,
  Fraction,
  Through: 12/31,
  For: AllDays,
  Until: 03:16, 0.6640,
  Until: 03:16, 0.6640,
  Until: 03:16, 0.6640,
  Until: 03:16, 0.6640,
  Until: 03:16, 0.6640,
  Until: 03:17, 0.6640,
  Until: 03:17, 0.6640,
  Until: 03:17, 0.6640,
  Until: 03:17, 0.6640,
  Until: 03:17, 0.6640,
  Until: 03:17, 0.6640,
  Until: 03:17, 0.6640,
  Until: 03:17, 0.6640,
  Until: 03:17, 0.6640,
  Until: 03:17, 0.6640,
  Until: 03:17, 0.6640,
  Until: 03:17, 0.6640,
  Until: 03:18, 0.6640,
  Until: 03:18, 0.6640,
  Until: 03:18, 0.6640,
  Until: 03:18, 0.6640,
  Until: 03:18, 0.6640,
  Until: 03:18, 0.6640,
  Until: 03:18, 0.6640,
  Until: 03:18, 0.6640,
  Until: 03:18, 0.6640,
  Until: 03:18, 0.6640,
  Until: 03:18, 0.6640,
  Until: 03:18, 0.6640,
  Until: 03:19, 0.6640,
  Until: 03:19, 0.6640,
  Until: 03:19, 0.6640,
  Until: 03:19, 0.6640,
  Until: 03:19, 0.6640,
  Until: 03:19, 0.6640,
  Until: 03:19, 0.6640,
  Until: 03:19, 0.6640,
  Until: 03:19, 0.6640,
  Until: 03:19, 0.6640,
  Until: 03:19, 0.6640,
  Until: 03:19, 0.6640,
  Until: 03:20, 0.6640,
  Until: 03:20, 0.6640,
  Until: 03:20, 0.6640,
  Until: 03:20, 0.6640,
  Until: 03:20, 0.6640,
  Until: 03:20, 0.6640,
  Until: 03:20, 0.6640,
  Until: 03:20, 0.6640,
  Until: 03:20, 0.6640,
  Until: 03:20, 0.6640,
  Until: 03:20, 0.6640,
  Until: 03:20, 0.6640,
  Until: 03:21, 0.6640,
  Until: 03:21, 0.6640,
  Until: 03:21, 0.6640,
  Until: 03:21, 0.6640,
  Until: 03:21, 0.6640,
  Until: 03:21, 0.6640,
  Until: 03:21, 0.6640,
  Until: 03:21, 0.6640,
  Until: 03:21, 0.6640,
  Until: 03:21, 0.6640,
  Until: 03:21, 0.6640,
  Until: 03:21, 0.6640,
  Until: 03:22, 0.6640,
  Until: 03:22, 0.6640,
  Until: 03:22, 0.6640,
  Until: 03:22, 0.6640,
  Until: 03:22, 0.6640,
  Until: 03:22, 0.6640,
  Until: 03:22, 0.6640,
  Until: 03:22, 0.6640,
  Until: 03:22, 0.6640,
  Until: 03:22, 0.6640,
  Until: 03:22, 0.6640,
  Until: 03:22, 0.6640,
  Until: 03:23, 0.6640,
  Until: 03:23, 0.6640,
  Until: 03:23, 0.6640,
  Until: 03:23, 0.6640,
  Until: 03:23, 0.6640,
  Until: 03:23, 0.6640,
  Until: 03:23, 0.6640,
  Until: 03:23, 0.6640,
  Until: 03:23, 0.6640,
  Until: 03:23, 0.6640,
  Until: 03:23, 0.6640,
  Until: 03:23, 0.6640,
  Until: 03:24, 0.6640,
  Until: 03:24, 0.6640,
  Until: 03:24, 0.6640,
  Until: 03:24, 0.6640,
  Until: 03:24, 0.6640,
  Until: 03:24, 0.6640,
  Until: 03:24, 0.6640,
  Until: 03:24, 0.6640,
  Until: 03:24, 0.6640,
  Until: 03:24, 0.6640,
  Until: 03:24, 0.6640,
  Until: 03:24, 0.6640,
  Until: 03:25, 0.6640,
  Until: 03:25, 0.6640,
  Until: 03:25, 0.6640,
  Until: 03:25, 0.6640,
  Until: 03:25, 0.6640,
  Until: 03:25, 0.6640,
  Until: 03:25, 0.6640,
  Until: 03:25, 0.6640,
  Until: 03:25, 0.6640,
  Until: 03:25, 0.6640,
  Until: 03:25, 0.6640,
  Until: 03:25, 0.6640,
  Until: 03:26, 0.6640,
  Until: 03:26, 0.6640,
  Until: 03:26, 0.6640,
  Until: 03:26, 0.6640,
  Until: 03:26, 0.6640,
  Until: 03:26, 0.6640,
  Until: 03:26, 0.6640,
  Until: 03:26, 0.6640,
  Until: 03:26, 0.6640,
  Until: 03:26, 0.6640,
  Until: 03:26, 0.6640,
  Until: 03:26, 0.6640,
  Until: 03:27, 0.6640,
  Until: 03:27, 0.6640,
  Until: 03:27, 0.6640,
  Until: 03:27, 0.6640,
  Until: 03:27, 0.6640,
  Until: 03:27, 0.6640,
  Until: 03:27, 0.6640,
  Until: 03:27, 0.6640,
  Until: 03:27, 0.6640,
  Until: 03:27, 0.6640,
  Until: 03:27, 0.6640,
  Until: 03:27, 0.6640,
  Until: 03:28, 0.6640,
  Until: 03:28, 0.6640,
  Until: 03:28, 0.6640,
  Until: 03:28, 0.6640,
  Until: 03:28, 0.6640,
  Until: 03:28, 0.6640,
  Until: 03:28, 0.6640,
  Until: 03:28, 0.6640,
  Until: 03:28, 0.6640,
  Until: 03:28, 0.6640,
  Until: 03:28, 0.6640,
  Until: 03:28, 0.6640,
  Until: 03:29, 0.6640,
  Until: 03:29, 0.6640,
  Until: 03:29, 0.6640,
  Until: 03:29, 0.6640,
  Until: 03:29, 0.6640,
  Until: 03:29, 0.6640,
  Until: 03:29, 0.6640,
  Until: 03:29, 0.6640,
  Until: 03:29, 0.6640,
  Until: 03:29, 0.6640,
  Until: 03:29, 0.6640,
  Until: 03:29, 0.6640,
  Until: 03:30, 0.6640,
  Until: 03:30, 0.6640,
  Until: 03:30, 0.6640,
  Until: 03:30, 0.6640,
  Until: 03:30, 0.6640,
  Until: 03:30, 0.6640,
  Until: 03:30, 0.6640,
  Until: 03:30, 0.6640,
  Until: 03:30, 0.6640,
  Until: 03:30, 0.6640,
  Until: 03:30, 0.6640,
  Until: 03:30, 0.6640,
  Until: 03:31, 0.6640,
  Until: 03:31, 0.6640,
  Until: 03:31, 0.6640,
  Until: 03:31, 0.6640,
  Until: 03:31, 0.6640,
  Until: 03:31, 0.6640,
  Until: 03:31, 0.6640,
  Until: 03:31, 0.6640,
  Until: 03:31, 0.6640,
  Until: 03:31, 0.6640,
  Until: 03:31, 0.6640,
  Until: 03:31, 0.6640,
  Until: 03:32, 0.6640,
  Until: 03:32, 0.6640,
  Until: 03:32, 0.6640,
  Until: 03:32, 0.6640,
  Until: 03:32, 0.6640,
  Until: 03:32, 0.6640,
  Until: 03:32, 0.6640,
  Until: 03:32, 0.6640,
  Until: 03:32, 0.6640,
  Until: 03:32, 0.6640,
  Until: 03:32, 0.6640,
  Until: 03:32, 0.6640,
  Until: 03:33, 0.6640,
  Until: 03:33, 0.6640,
  Until: 03:33, 0.6640,
  Until: 03:33, 0.6640,
  Until: 03:33, 0.6640,
  Until: 03:33, 0.6640,
  Until: 03:33, 0.6640,
  Until: 03:33, 0.6640,
  Until: 03:33, 0.6640,
  Until: 03:33, 0.6640,
  Until: 03:33, 0.6640,
  Until: 03:33, 0.6640,
  Until: 03:34, 0.6640,
  Until: 03:34, 0.6640,
  Until: 03:34, 0.6640,
  Until: 03:34, 0.6640,
  Until: 03:34, 0.6640,
  Until: 03:34, 0.6640,
  Until: 03:34, 0.6640,
  Until: 03:34, 0.6640,
  Until: 03:34, 0.6640,
  Until: 03:34, 0.6640,
  Until: 03:34, 0.6640,
  Until: 03:34, 0.6640,
  Until: 03:35, 0.6640,
  Until: 03:35, 0.6640,
  Until: 03:35, 0.6640,
  Until: 03:35, 0.6640,
  Until: 03:35, 0.6640,
  Until: 03:35, 0.6640,
  Until: 03:35, 0.6640,
  Until: 03:35, 0.6640,
  Until: 03:35, 0.6640,
  Until: 03:35, 0.6640,
  Until: 03:35, 0.6640,
  Until: 03:35, 0.6640,
  Until: 03:36, 0.6640,
  Until: 03:36, 0.6640,
  Until: 03:36, 0.6640,
  Until: 03:36, 0.6640,
  Until: 03:36, 0.6640,
  Until: 03:36, 0.6640,
  Until: 03:36, 0.6640,
  Until: 03:36, 0.6640,
  Until: 03:36, 0.6640,
  Until: 03:36, 0.6640,
  Until: 03:36, 0.6640,
  Until: 03:36, 0.6640,
  Until: 03:37, 0.6640,
  Until: 03:37, 0.0000,
  Until: 03:37, 0.0000,
  Until: 03:37, 0.0000,
  Until: 03:37, 0.0000,
  Until: 03:37, 0.0000,
  Until: 03:37, 0.5022,
  Until: 03:37, 0.6240,
  Until: 03:37, 0.7528,
  Until: 03:37, 0.7040,
  Until: 03:37, 0.7040,
  Until: 03:37, 0.7040,
  Until: 03:38, 0.9520,
  Until: 03:38, 0.8920,
  Until: 03:38, 0.7528,
  Until: 03:38, 0.8016,
  Until: 03:38, 0.8016,
  Until: 03:38, 0.8016,
  Until: 03:38, 0.8016,
  Until: 03:38, 0.8016,
  Until: 03:38, 0.8016,
  Until: 03:38, 0.8016,
  Until: 03:38, 0.8260,
  Until: 03:38, 0.8260,
  Until: 03:39, 0.8260,
  Until: 03:39, 0.8260,
  Until: 03:39, 0.8260,
  Until: 03:39, 0.8260,
  Until: 03:39, 0.8260,
  Until: 03:39, 0.8260,
  Until: 03:39, 0.8260,
  Until: 03:39, 0.8260,
  Until: 03:39, 0.8260,
  Until: 03:39, 0.8260,
  Until: 03:39, 0.8260,
  Until: 03:39, 0.8260,
  Until: 03:40, 0.8260,
  Until: 03:40, 0.8260,
  Until: 03:40, 0.8260,
  Until: 03:40, 0.8260,
  Until: 03:40, 0.8260,
  Until: 03:40, 0.8260,
  Until: 03:40, 0.8260,
  Until: 03:40, 0.8260,
  Until: 03:40, 0.8260,
  Until: 03:40, 0.8260,
  Until: 03:40, 0.8260,
  Until: 03:40, 0.8260,
  Until: 03:41, 0.8260,
  Until: 03:41, 0.8260,
  Until: 03:41, 0.8260,
  Until: 03:41, 0.8260,
  Until: 03:41, 0.8260,
  Until: 03:41, 0.8260,
  Until: 03:41, 0.8260,
  Until: 03:41, 0.8260,
  Until: 03:41, 0.8260,
  Until: 03:41, 0.8260,
  Until: 03:41, 0.8260,
  Until: 03:41, 0.8260,
  Until: 03:42, 0.8260,
  Until: 03:42, 0.8260,
  Until: 03:42, 0.8260,
  Until: 03:42, 0.8260,
  Until: 03:42, 0.8260,
  Until: 03:42, 0.8260,
  Until: 03:42, 0.8260,
  Until: 03:42, 0.8260,
  Until: 03:42, 0.8260,
  Until: 03:42, 0.8260,
  Until: 03:42, 0.8260,
  Until: 03:42, 0.8260,
  Until: 03:43, 0.8260,
  Until: 03:43, 0.8260,
  Until: 03:43, 0.8260,
  Until: 03:43, 0.8260,
  Until: 03:43, 0.8260,
  Until: 03:43, 0.8260,
  Until: 03:43, 0.8260,
  Until: 03:43, 0.8260,
  Until: 03:43, 0.8260,
  Until: 03:43, 0.8260,
  Until: 03:43, 0.8260,
  Until: 03:43, 0.8260,
  Until: 03:44, 0.8260,
  Until: 03:44, 0.8260,
  Until: 03:44, 0.8260,
  Until: 03:44, 0.8260,
  Until: 03:44, 0.8260,
  Until: 03:44, 0.8260,
  Until: 03:44, 0.8260,
  Until: 03:44, 0.8260,
  Until: 03:44, 0.8260,
  Until: 03:44, 0.8260,
  Until: 03:44, 0.8260,
  Until: 03:44, 0.8260,
  Until: 03:45, 0.8260,
  Until: 03:45, 0.8260,
  Until: 03:45, 0.8260,
  Until: 03:45, 0.8260,
  Until: 03:45, 0.8260,
  Until: 03:45, 0.8260,
  Until: 03:45, 0.8260,
  Until: 03:45, 0.8260,
  Until: 03:45, 0.8260,
  Until: 03:45, 0.8260,
  Until: 03:45, 0.8260,
  Until: 03:45, 0.8260,
  Until: 03:46, 0.8260,
  Until: 03:46, 0.8260,
  Until: 03:46, 0.8260,
  Until: 03:46, 0.8260,
  Until: 03:46, 0.8260,
  Until: 03:46, 0.8260,
  Until: 03:46, 0.8260,
  Until: 03:46, 0.8260,
  Until: 03:46, 0.8260,
  Until: 03:46, 0.8260,
  Until: 03:46, 0.8260,
  Until: 03:46, 0.8260,
  Until: 03:47, 0.8260,
  Until: 03:47, 0.8260,
  Until: 03:47, 0.8260,
  Until: 03:47, 0.8260,
  Until: 03:47, 0.8260,
  Until: 03:47, 0.8260,
  Until: 03:47, 0.8260,
  Until: 03:47, 0.8260,
  Until: 03:47, 0.8260,
  Until: 03:47, 0.8260,
  Until: 03:47, 0.8260,
  Until: 03:47, 0.8260,
  Until: 03:48, 0.8260,
  Until: 03:48, 0.8260,
  Until: 03:48, 0.8260,
  Until: 03:48, 0.8260,
  Until: 03:48, 0.8260,
  Until: 03:48, 0.8260,
  Until: 03:48, 0.8260,
  Until: 03:48, 0.8260,
  Until: 03:48, 0.8260,
  Until: 03:48, 0.8260,
  Until: 03:48, 0.8260,
  Until: 03:48, 0.8260,
  Until: 03:49, 0.8260,
  Until: 03:49, 0.8260,
  Until: 03:49, 0.8260,
  Until: 03:49, 0.8260,
  Until: 03:49, 0.8260,
  Until: 03:49, 0.8260,
  Until: 03:49, 0.8260,
  Until: 03:49, 0.8260,
  Until: 03:49, 0.8260,
  Until: 03:49, 0.8260,
  Until: 03:49, 0.8260,
  Until: 03:49, 0.8260,
  Until: 03:50, 0.8260,
  Until: 03:50, 0.8260,
  Until: 03:50, 0.8260,
  Until: 03:50, 0.8260,
  Until: 03:50, 0.8260,
  Until: 03:50, 0.8260,
  Until: 03:50, 0.8260,
  Until: 03:50, 0.8260,
  Until: 03:50, 0.8260,
  Until: 03:50, 0.8260,
  Until: 03:50, 0.8260,
  Until: 03:50, 0.8260,
  Until: 03:51, 0.8260,
  Until: 03:51, 0.8260,
  Until: 03:51, 0.8260,
  Until: 03:51, 0.8260,
  Until: 03:51, 0.8260,
  Until: 03:51, 0.8260,
  Until: 03:51, 0.8260,
  Until: 03:51, 0.8260,
  Until: 03:51, 0.8260,
  Until: 03:51, 0.8260,
  Until: 03:51, 0.8260,
  Until: 03:51, 0.8260,
  Until: 03:52, 0.8260,
  Until: 03:52, 0.8260,
  Until: 03:52, 0.8260,
  Until: 03:52, 0.8260,
  Until: 03:52, 0.8260,
  Until: 03:52, 0.8260,
  Until: 03:52, 0.8260,
  Until: 03:52, 0.8260,
  Until: 03:52, 0.8260,
  Until: 03:52, 0.8260,
  Until: 03:52, 0.8260,
  Until: 03:52, 0.8260,
  Until: 03:53, 0.8260,
  Until: 03:53, 0.8260,
  Until: 03:53, 0.8260,
  Until: 03:53, 0.8260,
  Until: 03:53, 0.8260,
  Until: 03:53, 0.8260,
  Until: 03:53, 0.8260,
  Until: 03:53, 0.8260,
  Until: 03:53, 0.8260,
  Until: 03:53, 0.8260,
  Until: 03:53, 0.8260,
  Until: 03:53, 0.8260,
  Until: 03:54, 0.8260,
  Until: 03:54, 0.8260,
  Until: 03:54, 0.8260,
  Until: 03:54, 0.8260,
  Until: 03:54, 0.8260,
  Until: 03:54, 0.8260,
  Until: 03:54, 0.8260,
  Until: 03:54, 0.8260,
  Until: 03:54, 0.8260,
  Until: 03:54, 0.8260,
  Until: 03:54, 0.8260,
  Until: 03:54, 0.8260,
  Until: 03:55, 0.8260,
  Until: 03:55, 0.8260,
  Until: 03:55, 0.8260,
  Until: 03:55, 0.8260,
  Until: 03:55, 0.8260,
  Until: 03:55, 0.8260,
  Until: 03:55, 0.8260,
  Until: 03:55, 0.8260,
  Until: 03:55, 0.8260,
  Until: 03:55, 0.8260,
  Until: 03:55, 0.8260,
  Until: 03:55, 0.8260,
  Until: 03:56, 0.8260,
  Until: 03:56, 0.8260,
  Until: 03:56, 0.8260,
  Until: 03:56, 0.8260,
  Until: 03:56, 0.8260,
  Until: 03:56, 0.8260,
  Until: 03:56, 0.8260,
  Until: 03:56, 0.8260,
  Until: 03:56, 0.8260,
  Until: 03:56, 0.8260,
  Until: 03:56, 0.8260,
  Until: 03:56, 0.8260,
  Until: 03:57, 0.8260,
  Until: 03:57, 0.8260,
  Until: 03:57, 0.8260,
  Until: 03:57, 0.8260,
  Until: 03:57, 0.8260,
  Until: 03:57, 0.8260,
  Until: 03:57, 0.8260,
  Until: 03:57, 0.8260,
  Until: 03:57, 0.8260,
  Until: 03:57, 0.8260,
  Until: 03:57, 0.8260,
  Until: 03:57, 0.8260,
  Until: 03:58, 0.8260,
  Until: 03:58, 0.8260,
  Until: 03:58, 0.8260,
  Until: 03:58, 0.8260,
  Until: 03:58, 0.8260,
  Until: 03:58, 0.8260,
  Until: 03:58, 0.8260,
  Until: 03:58, 0.8260,
  Until: 03:58, 0.8260,
  Until: 03:58, 0.8260,
  Until: 03:58, 0.8260,
  Until: 03:58, 0.8260,
  Until: 03:59, 0.8260,
  Until: 03:59, 0.8260,
  Until: 03:59, 0.8260,
  Until: 03:59, 0.8260,
  Until: 03:59, 0.8260,
  Until: 03:59, 0.8260,
  Until: 03:59, 0.8260,
  Until: 03:59, 0.8260,
  Until: 03:59, 0.8260,
  Until: 03:59, 0.8260,
  Until: 03:59, 0.8260,
  Until: 03:59, 0.8260,
  Until: 04:00, 0.8260,
  Until: 04:00, 0.8260,
  Until: 04:00, 0.8260,
  Until: 04:00, 0.8260,
  Until: 04:00, 0.8260,
  Until: 04:00, 0.8260,
  Until: 04:00, 0.8260,
  Until: 04:00, 0.8260,
  Until: 04:00, 0.8260,
  Until: 04:00, 0.8260,
  Until: 04:00, 0.8260,
  Until: 04:00, 0.8260,
  Until: 04:01, 0.8260,
  Until: 04:01, 0.8260,
  Until: 04:01, 0.8260,
  Until: 04:01, 0.8260,
  Until: 04:01, 0.8260,
  Until: 04:01, 0.8260,
  Until: 04:01, 0.8260,
  Until: 04:01, 0.8260,
  Until: 04:01, 0.8260,
  Until: 04:01, 0.8260,
  Until: 04:01, 0.8260,
  Until: 04:01, 0.8260,
  Until: 04:02, 0.8260,
  Until: 04:02, 0.8260,
  Until: 04:02, 0.8260,
  Until: 04:02, 0.8260,
  Until: 04:02, 0.8260,
  Until: 04:02, 0.8260,
  Until: 04:02, 0.8260,
  Until: 04:02, 0.8260,
  Until: 04:02, 0.8260,
  Until: 04:02, 0.8260,
  Until: 04:02, 0.8260,
  Until: 04:02, 0.8260,
  Until: 04:03, 0.8260,
  Until: 04:03, 0.8260,
  Until: 04:03, 0.8260,
  Until: 04:03, 0.8260,
  Until: 04:03, 0.8260,
  Until: 04:03, 0.8260,
  Until: 04:03, 0.8260,
  Until: 04:03, 0.8260,
  Until: 04:03, 0.8260,
  Until: 04:03, 0.8260,
  Until: 04:03, 0.8260,
  Until: 04:03, 0.8260,
  Until: 04:04, 0.8260,
  Until: 04:04, 0.8260,
  Until: 04:04, 0.8260,
  Until: 04:04, 0.8260,
  Until: 04:04, 0.8260,
  Until: 04:04, 0.8260,
  Until: 04:04, 0.8260,
  Until: 04:04, 0.8260,
  Until: 04:04, 0.8260,
  Until: 04:04, 0.8260,
  Until: 04:04, 0.8260,
  Until: 04:04, 0.8260,
  Until: 04:05, 0.8260,
  Until: 04:05, 0.8260,
  Until: 04:05, 0.8260,
  Until: 04:05, 0.8260,
  Until: 04:05, 0.8260,
  Until: 04:05, 0.8260,
  Until: 04:05, 0.8260,
  Until: 04:05, 0.8260,
  Until: 04:05, 0.8260,
  Until: 04:05, 0.8260,
  Until: 04:05, 0.8260,
  Until: 04:05, 0.8260,
  Until: 04:06, 0.8260,
  Until: 04:06, 0.8260,
  Until: 04:06, 0.8260,
  Until: 04:06, 0.8260,
  Until: 04:06, 0.8260,
  Until: 04:06, 0.8260,
  Until: 04:06, 0.8260,
  Until: 04:06, 0.8260,
  Until: 04:06, 0.8260,
  Until: 04:06, 0.8260,
  Until: 04:06, 0.8260,
  Until: 04:06, 0.8260,
  Until: 04:07, 0.8260,
  Until: 04:07, 0.8260,
  Until: 04:07, 0.8260,
  Until: 04:07, 0.8260,
  Until: 04:07, 0.8260,
  Until: 04:07, 0.8260,
  Until: 04:07, 0.8260,
  Until: 04:07, 0.8260,
  Until: 04:07, 0.8260,
  Until: 04:07, 0.8260,
  Until: 04:07, 0.8260,
  Until: 04:07, 0.8260,
  Until: 04:08, 0.8260,
  Until: 04:08, 0.8260,
  Until: 04:08, 0.8260,
  Until: 04:08, 0.8260,
  Until: 04:08, 0.8260,
  Until: 04:08, 0.8260,
  Until: 04:08, 0.8260,
  Until: 04:08, 0.8260,
  Until: 04:08, 0.8260,
  Until: 04:08, 0.8260,
  Until: 04:08, 0.8260,
  Until: 04:08, 0.8260,
  Until: 04:09, 0.8260,
  Until: 04:09, 0.8260,
  Until: 04:09, 0.8260,
  Until: 04:09, 0.8260,
  Until: 04:09, 0.8260,
  Until: 04:09, 0.8260,
  Until: 04:09, 0.8260,
  Until: 04:09, 0.8260,
  Until: 04:09, 0.8260,
  Until: 04:09, 0.8260,
  Until: 04:09, 0.8260,
  Until: 04:09, 0.8260,
  Until: 04:10, 0.8260,
  Until: 04:10, 0.8260,
  Until: 04:10, 0.8260,
  Until: 04:10, 0.8260,
  Until: 04:10, 0.8260,
  Until: 04:10, 0.8260,
  Until: 04:10, 0.8260,
  Until: 04:10, 0.8260,
  Until: 04:10, 0.8260,
  Until: 04:10, 0.8260,
  Until: 04:10, 0.8260,
  Until: 04:10, 0.8260,
  Until: 04:11, 0.8260,
  Until: 04:11, 0.8260,
  Until: 04:11, 0.8260,
  Until: 04:11, 0.8260,
  Until: 04:11, 0.8260,
  Until: 04:11, 0.8260,
  Until: 04:11, 0.8260,
  Until: 04:11, 0.8260,
  Until: 04:11, 0.8260,
  Until: 04:11, 0.8260,
  Until: 04:11, 0.8260,
  Until: 04:11, 0.8260,
  Until: 04:12, 0.8260,
  Until: 04:12, 0.8260,
  Until: 04:12, 0.8260,
  Until: 04:12, 0.8260,
  Until: 04:12, 0.8260,
  Until: 04:12, 0.8260,
  Until: 04:12, 0.8260,
  Until: 04:12, 0.8260,
  Until: 04:12, 0.8260,
  Until: 04:12, 0.8260,
  Until: 04:12, 0.8260,
  Until: 04:12, 0.8260,
  Until: 04:13, 0.8260,
  Until: 04:13, 0.8260,
  Until: 04:13, 0.8260,
  Until: 04:13, 0.8260,
  Until: 04:13, 0.8260,
  Until: 04:13, 0.8260,
  Until: 04:13, 0.8260,
  Until: 04:13, 0.8260,
  Until: 04:13, 0.8260,
  Until: 04:13, 0.8260,
  Until: 04:13, 0.8260,
  Until: 04:13, 0.8260,
  Until: 04:14, 0.8260,
  Until: 04:14, 0.8260,
  Until: 04:14, 0.8260,
  Until: 04:14, 0.8260,
  Until: 04:14, 0.8260,
  Until: 04:14, 0.8260,
  Until: 04:14, 0.8260,
  Until: 04:14, 0.8260,
  Until: 04:14, 0.8260,
  Until: 04:14, 0.8260,
  Until: 04:14, 0.8260,
  Until: 04:14, 0.8260,
  Until: 04:15, 0.8260,
  Until: 04:15, 0.8260,
  Until: 04:15, 0.8260,
  Until: 04:15, 0.8260,
  Until: 04:15, 0.8260,
  Until: 04:15, 0.8260,
  Until: 04:15, 0.8260,
  Until: 04:15, 0.8260,
  Until: 04:15, 0.8260,
  Until: 04:15, 0.8260,
  Until: 04:15, 0.8260,
  Until: 04:15, 0.8260,
  Until: 04:16, 0.8260,
  Until: 04:16, 0.8260,
  Until: 04:16, 0.8260,
  Until: 04:16, 0.8260,
  Until: 04:16, 0.8260,
  Until: 04:16, 0.8260,
  Until: 04:16, 0.8260,
  Until: 04:16, 0.8260,
  Until: 04:16, 0.8260,
  Until: 04:16, 0.8260,
  Until: 04:16, 0.8260,
  Until: 04:16, 0.8260,
  Until: 04:17, 0.8260,
  Until: 04:17, 0.8260,
  Until: 04:17, 0.8260,
  Until: 04:17, 0.8260,
  Until: 04:17, 0.8260,
  Until: 04:17, 0.8260,
  Until: 04:17, 0.8260,
  Until: 04:17, 0.8260,
  Until: 04:17, 0.8260,
  Until: 04:17, 0.8260,
  Until: 04:17, 0.8260,
  Until: 04:17, 0.8260,
  Until: 04:18, 0.8260,
  Until: 04:18, 0.8260,
  Until: 04:18, 0.8260,
  Until: 04:18, 0.8260,
  Until: 04:18, 0.8260,
  Until: 04:18, 0.8260,
  Until: 04:18, 0.8260,
  Until: 04:18, 0.8260,
  Until: 04:18, 0.8260,
  Until: 04:18, 0.8260,
  Until: 04:18, 0.8260,
  Until: 04:18, 0.8260,
  Until: 04:19, 0.8260,
  Until: 04:19, 0.8260,
  Until: 04:19, 0.8260,
  Until: 04:19, 0.8260,
  Until: 04:19, 0.8260,
  Until: 04:19, 0.8260,
  Until: 04:19, 0.8260,
  Until: 04:19, 0.8260,
  Until: 04:19, 0.8260,
  Until: 04:19, 0.8260,
  Until: 04:19, 0.8260,
  Until: 04:19, 0.8260,
  Until: 04:20, 0.8260,
  Until: 04:20, 0.8260,
  Until: 04:20, 0.8260,
  Until: 04:20, 0.8260,
  Until: 04:20, 0.8260,
  Until: 04:20, 0.8260,
  Until: 04:20, 0.8260,
  Until: 04:20, 0.8260,
  Until: 04:20, 0.8260,
  Until: 04:20, 0.8260,
  Until: 04:20, 0.8260,
  Until: 04:20, 0.8260,
  Until: 04:21, 0.8260,
  Until: 04:21, 0.8260,
  Until: 04:21, 0.8260,
  Until: 04:21, 0.8260,
  Until: 04:21, 0.8260,
  Until: 04:21, 0.8260,
  Until: 04:21, 0.8260,
  Until: 04:21, 0.8260,
  Until: 04:21, 0.8260,
  Until: 04:21, 0.8260,
  Until: 04:21, 0.8260,
  Until: 04:21, 0.8260,
  Until: 04:22, 0.8260,
  Until: 04:22, 0.8260,
  Until: 04:22, 0.8260,
  Until: 04:22, 0.8260,
  Until: 04:22, 0.8260,
  Until: 04:22, 0.8260,
  Until: 04:22, 0.8260,
  Until: 04:22, 0.8260,
  Until: 04:22, 0.8260,
  Until: 04:22, 0.8260,
  Until: 04:22, 0.8260,
  Until: 04:22, 0.8260,
  Until: 04:23, 0.8260,
  Until: 04:23, 0.8260,
  Until: 04:23, 0.8260,
  Until: 04:23, 0.8260,
  Until: 04:23, 0.8260,
  Until: 04:23, 0.8260,
  Until: 04:23, 0.8260,
  Until: 04:23, 0.8260,
  Until: 04:23, 0.8260,
  Until: 04:23, 0.8260,
  Until: 04:23, 0.8260,
  Until: 04:23, 0.8260,
  Until: 04:24, 0.8260,
  Until: 04:24, 0.8260,
  Until: 04:24, 0.8260,
  Until: 04:24, 0.8260,
  Until: 04:24, 0.8260,
  Until: 04:24, 0.8260,
  Until: 04:24, 0.8260,
  Until: 04:24, 0.8260,
  Until: 04:24, 0.8260,
  Until: 04:24, 0.8260,
  Until: 04:24, 0.8260,
  Until: 04:24, 0.8260,
  Until: 04:25, 0.8260,
  Until: 04:25, 0.8260,
  Until: 04:25, 0.8260,
  Until: 04:25, 0.8260,
  Until: 04:25, 0.8260,
  Until: 04:25, 0.8260,
  Until: 04:25, 0.8260,
  Until: 04:25, 0.8260,
  Until: 04:25, 0.8260,
  Until: 04:25, 0.8260,
  Until: 04:25, 0.8260,
  Until: 04:25, 0.8260,
  Until: 04:26, 0.8260,
  Until: 04:26, 0.8260,
  Until: 04:26, 0.8260,
  Until: 04:26, 0.8260,
  Until: 04:26, 0.8260,
  Until: 04:26, 0.8260,
  Until: 04:26, 0.8260,
  Until: 04:26, 0.8260,
  Until: 04:26, 0.8260,
  Until: 04:26, 0.8260,
  Until: 04:26, 0.8260,
  Until: 04:26, 0.8260,
  Until: 04:27, 0.8260,
  Until: 04:27, 0.8260,
  Until: 04:27, 0.8260,
  Until: 04:27, 0.8260,
  Until: 04:27, 0.8260,
  Until: 04:27, 0.8260,
  Until: 04:27, 0.8260,
  Until: 04:27, 0.8260,
  Until: 04:27, 0.8260,
  Until: 04:27, 0.8260,
  Until: 04:27, 0.8260,
  Until: 04:27, 0.8260,
  Until: 04:28, 0.8260,
  Until: 04:28, 0.8260,
  Until: 04:28, 0.8260,
  Until: 04:28, 0.8260,
  Until: 04:28, 0.8260,
  Until: 04:28, 0.8260,
  Until: 04:28, 0.8260,
  Until: 04:28, 0.8260,
  Until: 04:28, 0.8260,
  Until: 04:28, 0.8260,
  Until: 04:28, 0.8260,
  Until: 04:28, 0.8260,
  Until: 04:29, 0.8260,
  Until: 04:29, 0.8260,
  Until: 04:29, 0.8260,
  Until: 04:29, 0.8260,
  Until: 24:00, 0.0;



Schedule:Compact,
  SUPPLY_FLOW_FRACTION_SCH,
  Fraction,
  Through: 12/31,
  For: AllDays,
  Until: 03:16, 0.6640,
  Until: 03:16, 0.6640,
  Until: 03:16, 0.6640,
  Until: 03:16, 0.6640,
  Until: 03:16, 0.6640,
  Until: 03:17, 0.6640,
  Until: 03:17, 0.6640,
  Until: 03:17, 0.6640,
  Until: 03:17, 0.6640,
  Until: 03:17, 0.6640,
  Until: 03:17, 0.6640,
  Until: 03:17, 0.6640,
  Until: 03:17, 0.6640,
  Until: 03:17, 0.6640,
  Until: 03:17, 0.6640,
  Until: 03:17, 0.6640,
  Until: 03:17, 0.6640,
  Until: 03:18, 0.6640,
  Until: 03:18, 0.6640,
  Until: 03:18, 0.6640,
  Until: 03:18, 0.6640,
  Until: 03:18, 0.6640,
  Until: 03:18, 0.6640,
  Until: 03:18, 0.6640,
  Until: 03:18, 0.6640,
  Until: 03:18, 0.6640,
  Until: 03:18, 0.6640,
  Until: 03:18, 0.6640,
  Until: 03:18, 0.6640,
  Until: 03:19, 0.6640,
  Until: 03:19, 0.6640,
  Until: 03:19, 0.6640,
  Until: 03:19, 0.6640,
  Until: 03:19, 0.6640,
  Until: 03:19, 0.6640,
  Until: 03:19, 0.6640,
  Until: 03:19, 0.6640,
  Until: 03:19, 0.6640,
  Until: 03:19, 0.6640,
  Until: 03:19, 0.6640,
  Until: 03:19, 0.6640,
  Until: 03:20, 0.6640,
  Until: 03:20, 0.6640,
  Until: 03:20, 0.6640,
  Until: 03:20, 0.6640,
  Until: 03:20, 0.6640,
  Until: 03:20, 0.6640,
  Until: 03:20, 0.6640,
  Until: 03:20, 0.6640,
  Until: 03:20, 0.6640,
  Until: 03:20, 0.6640,
  Until: 03:20, 0.6640,
  Until: 03:20, 0.6640,
  Until: 03:21, 0.6640,
  Until: 03:21, 0.6640,
  Until: 03:21, 0.6640,
  Until: 03:21, 0.6640,
  Until: 03:21, 0.6640,
  Until: 03:21, 0.6640,
  Until: 03:21, 0.6640,
  Until: 03:21, 0.6640,
  Until: 03:21, 0.6640,
  Until: 03:21, 0.6640,
  Until: 03:21, 0.6640,
  Until: 03:21, 0.6640,
  Until: 03:22, 0.6640,
  Until: 03:22, 0.6640,
  Until: 03:22, 0.6640,
  Until: 03:22, 0.6640,
  Until: 03:22, 0.6640,
  Until: 03:22, 0.6640,
  Until: 03:22, 0.6640,
  Until: 03:22, 0.6640,
  Until: 03:22, 0.6640,
  Until: 03:22, 0.6640,
  Until: 03:22, 0.6640,
  Until: 03:22, 0.6640,
  Until: 03:23, 0.6640,
  Until: 03:23, 0.6640,
  Until: 03:23, 0.6640,
  Until: 03:23, 0.6640,
  Until: 03:23, 0.6640,
  Until: 03:23, 0.6640,
  Until: 03:23, 0.6640,
  Until: 03:23, 0.6640,
  Until: 03:23, 0.6640,
  Until: 03:23, 0.6640,
  Until: 03:23, 0.6640,
  Until: 03:23, 0.6640,
  Until: 03:24, 0.6640,
  Until: 03:24, 0.6640,
  Until: 03:24, 0.6640,
  Until: 03:24, 0.6640,
  Until: 03:24, 0.6640,
  Until: 03:24, 0.6640,
  Until: 03:24, 0.6640,
  Until: 03:24, 0.6640,
  Until: 03:24, 0.6640,
  Until: 03:24, 0.6640,
  Until: 03:24, 0.6640,
  Until: 03:24, 0.6640,
  Until: 03:25, 0.6640,
  Until: 03:25, 0.6640,
  Until: 03:25, 0.6640,
  Until: 03:25, 0.6640,
  Until: 03:25, 0.6640,
  Until: 03:25, 0.6640,
  Until: 03:25, 0.6640,
  Until: 03:25, 0.6640,
  Until: 03:25, 0.6640,
  Until: 03:25, 0.6640,
  Until: 03:25, 0.6640,
  Until: 03:25, 0.6640,
  Until: 03:26, 0.6640,
  Until: 03:26, 0.6640,
  Until: 03:26, 0.6640,
  Until: 03:26, 0.6640,
  Until: 03:26, 0.6640,
  Until: 03:26, 0.6640,
  Until: 03:26, 0.6640,
  Until: 03:26, 0.6640,
  Until: 03:26, 0.6640,
  Until: 03:26, 0.6640,
  Until: 03:26, 0.6640,
  Until: 03:26, 0.6640,
  Until: 03:27, 0.6640,
  Until: 03:27, 0.6640,
  Until: 03:27, 0.6640,
  Until: 03:27, 0.6640,
  Until: 03:27, 0.6640,
  Until: 03:27, 0.6640,
  Until: 03:27, 0.6640,
  Until: 03:27, 0.6640,
  Until: 03:27, 0.6640,
  Until: 03:27, 0.6640,
  Until: 03:27, 0.6640,
  Until: 03:27, 0.6640,
  Until: 03:28, 0.6640,
  Until: 03:28, 0.6640,
  Until: 03:28, 0.6640,
  Until: 03:28, 0.6640,
  Until: 03:28, 0.6640,
  Until: 03:28, 0.6640,
  Until: 03:28, 0.6640,
  Until: 03:28, 0.6640,
  Until: 03:28, 0.6640,
  Until: 03:28, 0.6640,
  Until: 03:28, 0.6640,
  Until: 03:28, 0.6640,
  Until: 03:29, 0.6640,
  Until: 03:29, 0.6640,
  Until: 03:29, 0.6640,
  Until: 03:29, 0.6640,
  Until: 03:29, 0.6640,
  Until: 03:29, 0.6640,
  Until: 03:29, 0.6640,
  Until: 03:29, 0.6640,
  Until: 03:29, 0.6640,
  Until: 03:29, 0.6640,
  Until: 03:29, 0.6640,
  Until: 03:29, 0.6640,
  Until: 03:30, 0.6640,
  Until: 03:30, 0.6640,
  Until: 03:30, 0.6640,
  Until: 03:30, 0.6640,
  Until: 03:30, 0.6640,
  Until: 03:30, 0.6640,
  Until: 03:30, 0.6640,
  Until: 03:30, 0.6640,
  Until: 03:30, 0.6640,
  Until: 03:30, 0.6640,
  Until: 03:30, 0.6640,
  Until: 03:30, 0.6640,
  Until: 03:31, 0.6640,
  Until: 03:31, 0.6640,
  Until: 03:31, 0.6640,
  Until: 03:31, 0.6640,
  Until: 03:31, 0.6640,
  Until: 03:31, 0.6640,
  Until: 03:31, 0.6640,
  Until: 03:31, 0.6640,
  Until: 03:31, 0.6640,
  Until: 03:31, 0.6640,
  Until: 03:31, 0.6640,
  Until: 03:31, 0.6640,
  Until: 03:32, 0.6640,
  Until: 03:32, 0.6640,
  Until: 03:32, 0.6640,
  Until: 03:32, 0.6640,
  Until: 03:32, 0.6640,
  Until: 03:32, 0.6640,
  Until: 03:32, 0.6640,
  Until: 03:32, 0.6640,
  Until: 03:32, 0.6640,
  Until: 03:32, 0.6640,
  Until: 03:32, 0.6640,
  Until: 03:32, 0.6640,
  Until: 03:33, 0.6640,
  Until: 03:33, 0.6640,
  Until: 03:33, 0.6640,
  Until: 03:33, 0.6640,
  Until: 03:33, 0.6640,
  Until: 03:33, 0.6640,
  Until: 03:33, 0.6640,
  Until: 03:33, 0.6640,
  Until: 03:33, 0.6640,
  Until: 03:33, 0.6640,
  Until: 03:33, 0.6640,
  Until: 03:33, 0.6640,
  Until: 03:34, 0.6640,
  Until: 03:34, 0.6640,
  Until: 03:34, 0.6640,
  Until: 03:34, 0.6640,
  Until: 03:34, 0.6640,
  Until: 03:34, 0.6640,
  Until: 03:34, 0.6640,
  Until: 03:34, 0.6640,
  Until: 03:34, 0.6640,
  Until: 03:34, 0.6640,
  Until: 03:34, 0.6640,
  Until: 03:34, 0.6640,
  Until: 03:35, 0.6640,
  Until: 03:35, 0.6640,
  Until: 03:35, 0.6640,
  Until: 03:35, 0.6640,
  Until: 03:35, 0.6640,
  Until: 03:35, 0.6640,
  Until: 03:35, 0.6640,
  Until: 03:35, 0.6640,
  Until: 03:35, 0.6640,
  Until: 03:35, 0.6640,
  Until: 03:35, 0.6640,
  Until: 03:35, 0.6640,
  Until: 03:36, 0.6640,
  Until: 03:36, 0.6640,
  Until: 03:36, 0.6640,
  Until: 03:36, 0.6640,
  Until: 03:36, 0.6640,
  Until: 03:36, 0.6640,
  Until: 03:36, 0.6640,
  Until: 03:36, 0.6640,
  Until: 03:36, 0.6640,
  Until: 03:36, 0.6640,
  Until: 03:36, 0.6640,
  Until: 03:36, 0.6640,
  Until: 03:37, 0.6640,
  Until: 03:37, 0.0000,
  Until: 03:37, 0.0000,
  Until: 03:37, 0.0000,
  Until: 03:37, 0.0000,
  Until: 03:37, 0.0000,
  Until: 03:37, 0.5022,
  Until: 03:37, 0.6240,
  Until: 03:37, 0.7528,
  Until: 03:37, 0.7040,
  Until: 03:37, 0.7040,
  Until: 03:37, 0.7040,
  Until: 03:38, 0.9520,
  Until: 03:38, 0.8920,
  Until: 03:38, 0.7528,
  Until: 03:38, 0.8016,
  Until: 03:38, 0.8016,
  Until: 03:38, 0.8016,
  Until: 03:38, 0.8016,
  Until: 03:38, 0.8016,
  Until: 03:38, 0.8016,
  Until: 03:38, 0.8016,
  Until: 03:38, 0.8260,
  Until: 03:38, 0.8260,
  Until: 03:39, 0.8260,
  Until: 03:39, 0.8260,
  Until: 03:39, 0.8260,
  Until: 03:39, 0.8260,
  Until: 03:39, 0.8260,
  Until: 03:39, 0.8260,
  Until: 03:39, 0.8260,
  Until: 03:39, 0.8260,
  Until: 03:39, 0.8260,
  Until: 03:39, 0.8260,
  Until: 03:39, 0.8260,
  Until: 03:39, 0.8260,
  Until: 03:40, 0.8260,
  Until: 03:40, 0.8260,
  Until: 03:40, 0.8260,
  Until: 03:40, 0.8260,
  Until: 03:40, 0.8260,
  Until: 03:40, 0.8260,
  Until: 03:40, 0.8260,
  Until: 03:40, 0.8260,
  Until: 03:40, 0.8260,
  Until: 03:40, 0.8260,
  Until: 03:40, 0.8260,
  Until: 03:40, 0.8260,
  Until: 03:41, 0.8260,
  Until: 03:41, 0.8260,
  Until: 03:41, 0.8260,
  Until: 03:41, 0.8260,
  Until: 03:41, 0.8260,
  Until: 03:41, 0.8260,
  Until: 03:41, 0.8260,
  Until: 03:41, 0.8260,
  Until: 03:41, 0.8260,
  Until: 03:41, 0.8260,
  Until: 03:41, 0.8260,
  Until: 03:41, 0.8260,
  Until: 03:42, 0.8260,
  Until: 03:42, 0.8260,
  Until: 03:42, 0.8260,
  Until: 03:42, 0.8260,
  Until: 03:42, 0.8260,
  Until: 03:42, 0.8260,
  Until: 03:42, 0.8260,
  Until: 03:42, 0.8260,
  Until: 03:42, 0.8260,
  Until: 03:42, 0.8260,
  Until: 03:42, 0.8260,
  Until: 03:42, 0.8260,
  Until: 03:43, 0.8260,
  Until: 03:43, 0.8260,
  Until: 03:43, 0.8260,
  Until: 03:43, 0.8260,
  Until: 03:43, 0.8260,
  Until: 03:43, 0.8260,
  Until: 03:43, 0.8260,
  Until: 03:43, 0.8260,
  Until: 03:43, 0.8260,
  Until: 03:43, 0.8260,
  Until: 03:43, 0.8260,
  Until: 03:43, 0.8260,
  Until: 03:44, 0.8260,
  Until: 03:44, 0.8260,
  Until: 03:44, 0.8260,
  Until: 03:44, 0.8260,
  Until: 03:44, 0.8260,
  Until: 03:44, 0.8260,
  Until: 03:44, 0.8260,
  Until: 03:44, 0.8260,
  Until: 03:44, 0.8260,
  Until: 03:44, 0.8260,
  Until: 03:44, 0.8260,
  Until: 03:44, 0.8260,
  Until: 03:45, 0.8260,
  Until: 03:45, 0.8260,
  Until: 03:45, 0.8260,
  Until: 03:45, 0.8260,
  Until: 03:45, 0.8260,
  Until: 03:45, 0.8260,
  Until: 03:45, 0.8260,
  Until: 03:45, 0.8260,
  Until: 03:45, 0.8260,
  Until: 03:45, 0.8260,
  Until: 03:45, 0.8260,
  Until: 03:45, 0.8260,
  Until: 03:46, 0.8260,
  Until: 03:46, 0.8260,
  Until: 03:46, 0.8260,
  Until: 03:46, 0.8260,
  Until: 03:46, 0.8260,
  Until: 03:46, 0.8260,
  Until: 03:46, 0.8260,
  Until: 03:46, 0.8260,
  Until: 03:46, 0.8260,
  Until: 03:46, 0.8260,
  Until: 03:46, 0.8260,
  Until: 03:46, 0.8260,
  Until: 03:47, 0.8260,
  Until: 03:47, 0.8260,
  Until: 03:47, 0.8260,
  Until: 03:47, 0.8260,
  Until: 03:47, 0.8260,
  Until: 03:47, 0.8260,
  Until: 03:47, 0.8260,
  Until: 03:47, 0.8260,
  Until: 03:47, 0.8260,
  Until: 03:47, 0.8260,
  Until: 03:47, 0.8260,
  Until: 03:47, 0.8260,
  Until: 03:48, 0.8260,
  Until: 03:48, 0.8260,
  Until: 03:48, 0.8260,
  Until: 03:48, 0.8260,
  Until: 03:48, 0.8260,
  Until: 03:48, 0.8260,
  Until: 03:48, 0.8260,
  Until: 03:48, 0.8260,
  Until: 03:48, 0.8260,
  Until: 03:48, 0.8260,
  Until: 03:48, 0.8260,
  Until: 03:48, 0.8260,
  Until: 03:49, 0.8260,
  Until: 03:49, 0.8260,
  Until: 03:49, 0.8260,
  Until: 03:49, 0.8260,
  Until: 03:49, 0.8260,
  Until: 03:49, 0.8260,
  Until: 03:49, 0.8260,
  Until: 03:49, 0.8260,
  Until: 03:49, 0.8260,
  Until: 03:49, 0.8260,
  Until: 03:49, 0.8260,
  Until: 03:49, 0.8260,
  Until: 03:50, 0.8260,
  Until: 03:50, 0.8260,
  Until: 03:50, 0.8260,
  Until: 03:50, 0.8260,
  Until: 03:50, 0.8260,
  Until: 03:50, 0.8260,
  Until: 03:50, 0.8260,
  Until: 03:50, 0.8260,
  Until: 03:50, 0.8260,
  Until: 03:50, 0.8260,
  Until: 03:50, 0.8260,
  Until: 03:50, 0.8260,
  Until: 03:51, 0.8260,
  Until: 03:51, 0.8260,
  Until: 03:51, 0.8260,
  Until: 03:51, 0.8260,
  Until: 03:51, 0.8260,
  Until: 03:51, 0.8260,
  Until: 03:51, 0.8260,
  Until: 03:51, 0.8260,
  Until: 03:51, 0.8260,
  Until: 03:51, 0.8260,
  Until: 03:51, 0.8260,
  Until: 03:51, 0.8260,
  Until: 03:52, 0.8260,
  Until: 03:52, 0.8260,
  Until: 03:52, 0.8260,
  Until: 03:52, 0.8260,
  Until: 03:52, 0.8260,
  Until: 03:52, 0.8260,
  Until: 03:52, 0.8260,
  Until: 03:52, 0.8260,
  Until: 03:52, 0.8260,
  Until: 03:52, 0.8260,
  Until: 03:52, 0.8260,
  Until: 03:52, 0.8260,
  Until: 03:53, 0.8260,
  Until: 03:53, 0.8260,
  Until: 03:53, 0.8260,
  Until: 03:53, 0.8260,
  Until: 03:53, 0.8260,
  Until: 03:53, 0.8260,
  Until: 03:53, 0.8260,
  Until: 03:53, 0.8260,
  Until: 03:53, 0.8260,
  Until: 03:53, 0.8260,
  Until: 03:53, 0.8260,
  Until: 03:53, 0.8260,
  Until: 03:54, 0.8260,
  Until: 03:54, 0.8260,
  Until: 03:54, 0.8260,
  Until: 03:54, 0.8260,
  Until: 03:54, 0.8260,
  Until: 03:54, 0.8260,
  Until: 03:54, 0.8260,
  Until: 03:54, 0.8260,
  Until: 03:54, 0.8260,
  Until: 03:54, 0.8260,
  Until: 03:54, 0.8260,
  Until: 03:54, 0.8260,
  Until: 03:55, 0.8260,
  Until: 03:55, 0.8260,
  Until: 03:55, 0.8260,
  Until: 03:55, 0.8260,
  Until: 03:55, 0.8260,
  Until: 03:55, 0.8260,
  Until: 03:55, 0.8260,
  Until: 03:55, 0.8260,
  Until: 03:55, 0.8260,
  Until: 03:55, 0.8260,
  Until: 03:55, 0.8260,
  Until: 03:55, 0.8260,
  Until: 03:56, 0.8260,
  Until: 03:56, 0.8260,
  Until: 03:56, 0.8260,
  Until: 03:56, 0.8260,
  Until: 03:56, 0.8260,
  Until: 03:56, 0.8260,
  Until: 03:56, 0.8260,
  Until: 03:56, 0.8260,
  Until: 03:56, 0.8260,
  Until: 03:56, 0.8260,
  Until: 03:56, 0.8260,
  Until: 03:56, 0.8260,
  Until: 03:57, 0.8260,
  Until: 03:57, 0.8260,
  Until: 03:57, 0.8260,
  Until: 03:57, 0.8260,
  Until: 03:57, 0.8260,
  Until: 03:57, 0.8260,
  Until: 03:57, 0.8260,
  Until: 03:57, 0.8260,
  Until: 03:57, 0.8260,
  Until: 03:57, 0.8260,
  Until: 03:57, 0.8260,
  Until: 03:57, 0.8260,
  Until: 03:58, 0.8260,
  Until: 03:58, 0.8260,
  Until: 03:58, 0.8260,
  Until: 03:58, 0.8260,
  Until: 03:58, 0.8260,
  Until: 03:58, 0.8260,
  Until: 03:58, 0.8260,
  Until: 03:58, 0.8260,
  Until: 03:58, 0.8260,
  Until: 03:58, 0.8260,
  Until: 03:58, 0.8260,
  Until: 03:58, 0.8260,
  Until: 03:59, 0.8260,
  Until: 03:59, 0.8260,
  Until: 03:59, 0.8260,
  Until: 03:59, 0.8260,
  Until: 03:59, 0.8260,
  Until: 03:59, 0.8260,
  Until: 03:59, 0.8260,
  Until: 03:59, 0.8260,
  Until: 03:59, 0.8260,
  Until: 03:59, 0.8260,
  Until: 03:59, 0.8260,
  Until: 03:59, 0.8260,
  Until: 04:00, 0.8260,
  Until: 04:00, 0.8260,
  Until: 04:00, 0.8260,
  Until: 04:00, 0.8260,
  Until: 04:00, 0.8260,
  Until: 04:00, 0.8260,
  Until: 04:00, 0.8260,
  Until: 04:00, 0.8260,
  Until: 04:00, 0.8260,
  Until: 04:00, 0.8260,
  Until: 04:00, 0.8260,
  Until: 04:00, 0.8260,
  Until: 04:01, 0.8260,
  Until: 04:01, 0.8260,
  Until: 04:01, 0.8260,
  Until: 04:01, 0.8260,
  Until: 04:01, 0.8260,
  Until: 04:01, 0.8260,
  Until: 04:01, 0.8260,
  Until: 04:01, 0.8260,
  Until: 04:01, 0.8260,
  Until: 04:01, 0.8260,
  Until: 04:01, 0.8260,
  Until: 04:01, 0.8260,
  Until: 04:02, 0.8260,
  Until: 04:02, 0.8260,
  Until: 04:02, 0.8260,
  Until: 04:02, 0.8260,
  Until: 04:02, 0.8260,
  Until: 04:02, 0.8260,
  Until: 04:02, 0.8260,
  Until: 04:02, 0.8260,
  Until: 04:02, 0.8260,
  Until: 04:02, 0.8260,
  Until: 04:02, 0.8260,
  Until: 04:02, 0.8260,
  Until: 04:03, 0.8260,
  Until: 04:03, 0.8260,
  Until: 04:03, 0.8260,
  Until: 04:03, 0.8260,
  Until: 04:03, 0.8260,
  Until: 04:03, 0.8260,
  Until: 04:03, 0.8260,
  Until: 04:03, 0.8260,
  Until: 04:03, 0.8260,
  Until: 04:03, 0.8260,
  Until: 04:03, 0.8260,
  Until: 04:03, 0.8260,
  Until: 04:04, 0.8260,
  Until: 04:04, 0.8260,
  Until: 04:04, 0.8260,
  Until: 04:04, 0.8260,
  Until: 04:04, 0.8260,
  Until: 04:04, 0.8260,
  Until: 04:04, 0.8260,
  Until: 04:04, 0.8260,
  Until: 04:04, 0.8260,
  Until: 04:04, 0.8260,
  Until: 04:04, 0.8260,
  Until: 04:04, 0.8260,
  Until: 04:05, 0.8260,
  Until: 04:05, 0.8260,
  Until: 04:05, 0.8260,
  Until: 04:05, 0.8260,
  Until: 04:05, 0.8260,
  Until: 04:05, 0.8260,
  Until: 04:05, 0.8260,
  Until: 04:05, 0.8260,
  Until: 04:05, 0.8260,
  Until: 04:05, 0.8260,
  Until: 04:05, 0.8260,
  Until: 04:05, 0.8260,
  Until: 04:06, 0.8260,
  Until: 04:06, 0.8260,
  Until: 04:06, 0.8260,
  Until: 04:06, 0.8260,
  Until: 04:06, 0.8260,
  Until: 04:06, 0.8260,
  Until: 04:06, 0.8260,
  Until: 04:06, 0.8260,
  Until: 04:06, 0.8260,
  Until: 04:06, 0.8260,
  Until: 04:06, 0.8260,
  Until: 04:06, 0.8260,
  Until: 04:07, 0.8260,
  Until: 04:07, 0.8260,
  Until: 04:07, 0.8260,
  Until: 04:07, 0.8260,
  Until: 04:07, 0.8260,
  Until: 04:07, 0.8260,
  Until: 04:07, 0.8260,
  Until: 04:07, 0.8260,
  Until: 04:07, 0.8260,
  Until: 04:07, 0.8260,
  Until: 04:07, 0.8260,
  Until: 04:07, 0.8260,
  Until: 04:08, 0.8260,
  Until: 04:08, 0.8260,
  Until: 04:08, 0.8260,
  Until: 04:08, 0.8260,
  Until: 04:08, 0.8260,
  Until: 04:08, 0.8260,
  Until: 04:08, 0.8260,
  Until: 04:08, 0.8260,
  Until: 04:08, 0.8260,
  Until: 04:08, 0.8260,
  Until: 04:08, 0.8260,
  Until: 04:08, 0.8260,
  Until: 04:09, 0.8260,
  Until: 04:09, 0.8260,
  Until: 04:09, 0.8260,
  Until: 04:09, 0.8260,
  Until: 04:09, 0.8260,
  Until: 04:09, 0.8260,
  Until: 04:09, 0.8260,
  Until: 04:09, 0.8260,
  Until: 04:09, 0.8260,
  Until: 04:09, 0.8260,
  Until: 04:09, 0.8260,
  Until: 04:09, 0.8260,
  Until: 04:10, 0.8260,
  Until: 04:10, 0.8260,
  Until: 04:10, 0.8260,
  Until: 04:10, 0.8260,
  Until: 04:10, 0.8260,
  Until: 04:10, 0.8260,
  Until: 04:10, 0.8260,
  Until: 04:10, 0.8260,
  Until: 04:10, 0.8260,
  Until: 04:10, 0.8260,
  Until: 04:10, 0.8260,
  Until: 04:10, 0.8260,
  Until: 04:11, 0.8260,
  Until: 04:11, 0.8260,
  Until: 04:11, 0.8260,
  Until: 04:11, 0.8260,
  Until: 04:11, 0.8260,
  Until: 04:11, 0.8260,
  Until: 04:11, 0.8260,
  Until: 04:11, 0.8260,
  Until: 04:11, 0.8260,
  Until: 04:11, 0.8260,
  Until: 04:11, 0.8260,
  Until: 04:11, 0.8260,
  Until: 04:12, 0.8260,
  Until: 04:12, 0.8260,
  Until: 04:12, 0.8260,
  Until: 04:12, 0.8260,
  Until: 04:12, 0.8260,
  Until: 04:12, 0.8260,
  Until: 04:12, 0.8260,
  Until: 04:12, 0.8260,
  Until: 04:12, 0.8260,
  Until: 04:12, 0.8260,
  Until: 04:12, 0.8260,
  Until: 04:12, 0.8260,
  Until: 04:13, 0.8260,
  Until: 04:13, 0.8260,
  Until: 04:13, 0.8260,
  Until: 04:13, 0.8260,
  Until: 04:13, 0.8260,
  Until: 04:13, 0.8260,
  Until: 04:13, 0.8260,
  Until: 04:13, 0.8260,
  Until: 04:13, 0.8260,
  Until: 04:13, 0.8260,
  Until: 04:13, 0.8260,
  Until: 04:13, 0.8260,
  Until: 04:14, 0.8260,
  Until: 04:14, 0.8260,
  Until: 04:14, 0.8260,
  Until: 04:14, 0.8260,
  Until: 04:14, 0.8260,
  Until: 04:14, 0.8260,
  Until: 04:14, 0.8260,
  Until: 04:14, 0.8260,
  Until: 04:14, 0.8260,
  Until: 04:14, 0.8260,
  Until: 04:14, 0.8260,
  Until: 04:14, 0.8260,
  Until: 04:15, 0.8260,
  Until: 04:15, 0.8260,
  Until: 04:15, 0.8260,
  Until: 04:15, 0.8260,
  Until: 04:15, 0.8260,
  Until: 04:15, 0.8260,
  Until: 04:15, 0.8260,
  Until: 04:15, 0.8260,
  Until: 04:15, 0.8260,
  Until: 04:15, 0.8260,
  Until: 04:15, 0.8260,
  Until: 04:15, 0.8260,
  Until: 04:16, 0.8260,
  Until: 04:16, 0.8260,
  Until: 04:16, 0.8260,
  Until: 04:16, 0.8260,
  Until: 04:16, 0.8260,
  Until: 04:16, 0.8260,
  Until: 04:16, 0.8260,
  Until: 04:16, 0.8260,
  Until: 04:16, 0.8260,
  Until: 04:16, 0.8260,
  Until: 04:16, 0.8260,
  Until: 04:16, 0.8260,
  Until: 04:17, 0.8260,
  Until: 04:17, 0.8260,
  Until: 04:17, 0.8260,
  Until: 04:17, 0.8260,
  Until: 04:17, 0.8260,
  Until: 04:17, 0.8260,
  Until: 04:17, 0.8260,
  Until: 04:17, 0.8260,
  Until: 04:17, 0.8260,
  Until: 04:17, 0.8260,
  Until: 04:17, 0.8260,
  Until: 04:17, 0.8260,
  Until: 04:18, 0.8260,
  Until: 04:18, 0.8260,
  Until: 04:18, 0.8260,
  Until: 04:18, 0.8260,
  Until: 04:18, 0.8260,
  Until: 04:18, 0.8260,
  Until: 04:18, 0.8260,
  Until: 04:18, 0.8260,
  Until: 04:18, 0.8260,
  Until: 04:18, 0.8260,
  Until: 04:18, 0.8260,
  Until: 04:18, 0.8260,
  Until: 04:19, 0.8260,
  Until: 04:19, 0.8260,
  Until: 04:19, 0.8260,
  Until: 04:19, 0.8260,
  Until: 04:19, 0.8260,
  Until: 04:19, 0.8260,
  Until: 04:19, 0.8260,
  Until: 04:19, 0.8260,
  Until: 04:19, 0.8260,
  Until: 04:19, 0.8260,
  Until: 04:19, 0.8260,
  Until: 04:19, 0.8260,
  Until: 04:20, 0.8260,
  Until: 04:20, 0.8260,
  Until: 04:20, 0.8260,
  Until: 04:20, 0.8260,
  Until: 04:20, 0.8260,
  Until: 04:20, 0.8260,
  Until: 04:20, 0.8260,
  Until: 04:20, 0.8260,
  Until: 04:20, 0.8260,
  Until: 04:20, 0.8260,
  Until: 04:20, 0.8260,
  Until: 04:20, 0.8260,
  Until: 04:21, 0.8260,
  Until: 04:21, 0.8260,
  Until: 04:21, 0.8260,
  Until: 04:21, 0.8260,
  Until: 04:21, 0.8260,
  Until: 04:21, 0.8260,
  Until: 04:21, 0.8260,
  Until: 04:21, 0.8260,
  Until: 04:21, 0.8260,
  Until: 04:21, 0.8260,
  Until: 04:21, 0.8260,
  Until: 04:21, 0.8260,
  Until: 04:22, 0.8260,
  Until: 04:22, 0.8260,
  Until: 04:22, 0.8260,
  Until: 04:22, 0.8260,
  Until: 04:22, 0.8260,
  Until: 04:22, 0.8260,
  Until: 04:22, 0.8260,
  Until: 04:22, 0.8260,
  Until: 04:22, 0.8260,
  Until: 04:22, 0.8260,
  Until: 04:22, 0.8260,
  Until: 04:22, 0.8260,
  Until: 04:23, 0.8260,
  Until: 04:23, 0.8260,
  Until: 04:23, 0.8260,
  Until: 04:23, 0.8260,
  Until: 04:23, 0.8260,
  Until: 04:23, 0.8260,
  Until: 04:23, 0.8260,
  Until: 04:23, 0.8260,
  Until: 04:23, 0.8260,
  Until: 04:23, 0.8260,
  Until: 04:23, 0.8260,
  Until: 04:23, 0.8260,
  Until: 04:24, 0.8260,
  Until: 04:24, 0.8260,
  Until: 04:24, 0.8260,
  Until: 04:24, 0.8260,
  Until: 04:24, 0.8260,
  Until: 04:24, 0.8260,
  Until: 04:24, 0.8260,
  Until: 04:24, 0.8260,
  Until: 04:24, 0.8260,
  Until: 04:24, 0.8260,
  Until: 04:24, 0.8260,
  Until: 04:24, 0.8260,
  Until: 04:25, 0.8260,
  Until: 04:25, 0.8260,
  Until: 04:25, 0.8260,
  Until: 04:25, 0.8260,
  Until: 04:25, 0.8260,
  Until: 04:25, 0.8260,
  Until: 04:25, 0.8260,
  Until: 04:25, 0.8260,
  Until: 04:25, 0.8260,
  Until: 04:25, 0.8260,
  Until: 04:25, 0.8260,
  Until: 04:25, 0.8260,
  Until: 04:26, 0.8260,
  Until: 04:26, 0.8260,
  Until: 04:26, 0.8260,
  Until: 04:26, 0.8260,
  Until: 04:26, 0.8260,
  Until: 04:26, 0.8260,
  Until: 04:26, 0.8260,
  Until: 04:26, 0.8260,
  Until: 04:26, 0.8260,
  Until: 04:26, 0.8260,
  Until: 04:26, 0.8260,
  Until: 04:26, 0.8260,
  Until: 04:27, 0.8260,
  Until: 04:27, 0.8260,
  Until: 04:27, 0.8260,
  Until: 04:27, 0.8260,
  Until: 04:27, 0.8260,
  Until: 04:27, 0.8260,
  Until: 04:27, 0.8260,
  Until: 04:27, 0.8260,
  Until: 04:27, 0.8260,
  Until: 04:27, 0.8260,
  Until: 04:27, 0.8260,
  Until: 04:27, 0.8260,
  Until: 04:28, 0.8260,
  Until: 04:28, 0.8260,
  Until: 04:28, 0.8260,
  Until: 04:28, 0.8260,
  Until: 04:28, 0.8260,
  Until: 04:28, 0.8260,
  Until: 04:28, 0.8260,
  Until: 04:28, 0.8260,
  Until: 04:28, 0.8260,
  Until: 04:28, 0.8260,
  Until: 04:28, 0.8260,
  Until: 04:28, 0.8260,
  Until: 04:29, 0.8260,
  Until: 04:29, 0.8260,
  Until: 04:29, 0.8260,
  Until: 04:29, 0.8260,
  Until: 24:00, 0.0;



Schedule:Compact,
  OUTDOOR_AIR_FRACTION_SCH,
  Fraction,
  Through: 12/31,
  For: AllDays,
  Until: 03:16, 0.0,
  Until: 03:16, 0.0,
  Until: 03:16, 0.0,
  Until: 03:16, 0.0,
  Until: 03:16, 0.0,
  Until: 03:17, 0.0,
  Until: 03:17, 0.0,
  Until: 03:17, 0.0,
  Until: 03:17, 0.0,
  Until: 03:17, 0.0,
  Until: 03:17, 0.0,
  Until: 03:17, 0.0,
  Until: 03:17, 0.0,
  Until: 03:17, 0.0,
  Until: 03:17, 0.0,
  Until: 03:17, 0.0,
  Until: 03:17, 0.0,
  Until: 03:18, 0.0,
  Until: 03:18, 0.0,
  Until: 03:18, 0.0,
  Until: 03:18, 0.0,
  Until: 03:18, 0.0,
  Until: 03:18, 0.0,
  Until: 03:18, 0.0,
  Until: 03:18, 0.0,
  Until: 03:18, 0.0,
  Until: 03:18, 0.0,
  Until: 03:18, 0.0,
  Until: 03:18, 0.0,
  Until: 03:19, 0.0,
  Until: 03:19, 0.0,
  Until: 03:19, 0.0,
  Until: 03:19, 0.0,
  Until: 03:19, 0.0,
  Until: 03:19, 0.0,
  Until: 03:19, 0.0,
  Until: 03:19, 0.0,
  Until: 03:19, 0.0,
  Until: 03:19, 0.0,
  Until: 03:19, 0.0,
  Until: 03:19, 0.0,
  Until: 03:20, 0.0,
  Until: 03:20, 0.0,
  Until: 03:20, 0.0,
  Until: 03:20, 0.0,
  Until: 03:20, 0.0,
  Until: 03:20, 0.0,
  Until: 03:20, 0.0,
  Until: 03:20, 0.0,
  Until: 03:20, 0.0,
  Until: 03:20, 0.0,
  Until: 03:20, 0.0,
  Until: 03:20, 0.0,
  Until: 03:21, 0.0,
  Until: 03:21, 0.0,
  Until: 03:21, 0.0,
  Until: 03:21, 0.0,
  Until: 03:21, 0.0,
  Until: 03:21, 0.0,
  Until: 03:21, 0.0,
  Until: 03:21, 0.0,
  Until: 03:21, 0.0,
  Until: 03:21, 0.0,
  Until: 03:21, 0.0,
  Until: 03:21, 0.0,
  Until: 03:22, 0.0,
  Until: 03:22, 0.0,
  Until: 03:22, 0.0,
  Until: 03:22, 0.0,
  Until: 03:22, 0.0,
  Until: 03:22, 0.0,
  Until: 03:22, 0.0,
  Until: 03:22, 0.0,
  Until: 03:22, 0.0,
  Until: 03:22, 0.0,
  Until: 03:22, 0.0,
  Until: 03:22, 0.0,
  Until: 03:23, 0.0,
  Until: 03:23, 0.0,
  Until: 03:23, 0.0,
  Until: 03:23, 0.0,
  Until: 03:23, 0.0,
  Until: 03:23, 0.0,
  Until: 03:23, 0.0,
  Until: 03:23, 0.0,
  Until: 03:23, 0.0,
  Until: 03:23, 0.0,
  Until: 03:23, 0.0,
  Until: 03:23, 0.0,
  Until: 03:24, 0.0,
  Until: 03:24, 0.0,
  Until: 03:24, 0.0,
  Until: 03:24, 0.0,
  Until: 03:24, 0.0,
  Until: 03:24, 0.0,
  Until: 03:24, 0.0,
  Until: 03:24, 0.0,
  Until: 03:24, 0.0,
  Until: 03:24, 0.0,
  Until: 03:24, 0.0,
  Until: 03:24, 0.0,
  Until: 03:25, 0.0,
  Until: 03:25, 0.0,
  Until: 03:25, 0.0,
  Until: 03:25, 0.0,
  Until: 03:25, 0.0,
  Until: 03:25, 0.0,
  Until: 03:25, 0.0,
  Until: 03:25, 0.0,
  Until: 03:25, 0.0,
  Until: 03:25, 0.0,
  Until: 03:25, 0.0,
  Until: 03:25, 0.0,
  Until: 03:26, 0.0,
  Until: 03:26, 0.0,
  Until: 03:26, 0.0,
  Until: 03:26, 0.0,
  Until: 03:26, 0.0,
  Until: 03:26, 0.0,
  Until: 03:26, 0.0,
  Until: 03:26, 0.0,
  Until: 03:26, 0.0,
  Until: 03:26, 0.0,
  Until: 03:26, 0.0,
  Until: 03:26, 0.0,
  Until: 03:27, 0.0,
  Until: 03:27, 0.0,
  Until: 03:27, 0.0,
  Until: 03:27, 0.0,
  Until: 03:27, 0.0,
  Until: 03:27, 0.0,
  Until: 03:27, 0.0,
  Until: 03:27, 0.0,
  Until: 03:27, 0.0,
  Until: 03:27, 0.0,
  Until: 03:27, 0.0,
  Until: 03:27, 0.0,
  Until: 03:28, 0.0,
  Until: 03:28, 0.0,
  Until: 03:28, 0.0,
  Until: 03:28, 0.0,
  Until: 03:28, 0.0,
  Until: 03:28, 0.0,
  Until: 03:28, 0.0,
  Until: 03:28, 0.0,
  Until: 03:28, 0.0,
  Until: 03:28, 0.0,
  Until: 03:28, 0.0,
  Until: 03:28, 0.0,
  Until: 03:29, 0.0,
  Until: 03:29, 0.0,
  Until: 03:29, 0.0,
  Until: 03:29, 0.0,
  Until: 03:29, 0.0,
  Until: 03:29, 0.0,
  Until: 03:29, 0.0,
  Until: 03:29, 0.0,
  Until: 03:29, 0.0,
  Until: 03:29, 0.0,
  Until: 03:29, 0.0,
  Until: 03:29, 0.0,
  Until: 03:30, 0.0,
  Until: 03:30, 0.0,
  Until: 03:30, 0.0,
  Until: 03:30, 0.0,
  Until: 03:30, 0.0,
  Until: 03:30, 0.0,
  Until: 03:30, 0.0,
  Until: 03:30, 0.0,
  Until: 03:30, 0.0,
  Until: 03:30, 0.0,
  Until: 03:30, 0.0,
  Until: 03:30, 0.0,
  Until: 03:31, 0.0,
  Until: 03:31, 0.0,
  Until: 03:31, 0.0,
  Until: 03:31, 0.0,
  Until: 03:31, 0.0,
  Until: 03:31, 0.0,
  Until: 03:31, 0.0,
  Until: 03:31, 0.0,
  Until: 03:31, 0.0,
  Until: 03:31, 0.0,
  Until: 03:31, 0.0,
  Until: 03:31, 0.0,
  Until: 03:32, 0.0,
  Until: 03:32, 0.0,
  Until: 03:32, 0.0,
  Until: 03:32, 0.0,
  Until: 03:32, 0.0,
  Until: 03:32, 0.0,
  Until: 03:32, 0.0,
  Until: 03:32, 0.0,
  Until: 03:32, 0.0,
  Until: 03:32, 0.0,
  Until: 03:32, 0.0,
  Until: 03:32, 0.0,
  Until: 03:33, 0.0,
  Until: 03:33, 0.0,
  Until: 03:33, 0.0,
  Until: 03:33, 0.0,
  Until: 03:33, 0.0,
  Until: 03:33, 0.0,
  Until: 03:33, 0.0,
  Until: 03:33, 0.0,
  Until: 03:33, 0.0,
  Until: 03:33, 0.0,
  Until: 03:33, 0.0,
  Until: 03:33, 0.0,
  Until: 03:34, 0.0,
  Until: 03:34, 0.0,
  Until: 03:34, 0.0,
  Until: 03:34, 0.0,
  Until: 03:34, 0.0,
  Until: 03:34, 0.0,
  Until: 03:34, 0.0,
  Until: 03:34, 0.0,
  Until: 03:34, 0.0,
  Until: 03:34, 0.0,
  Until: 03:34, 0.0,
  Until: 03:34, 0.0,
  Until: 03:35, 0.0,
  Until: 03:35, 0.0,
  Until: 03:35, 0.0,
  Until: 03:35, 0.0,
  Until: 03:35, 0.0,
  Until: 03:35, 0.0,
  Until: 03:35, 0.0,
  Until: 03:35, 0.0,
  Until: 03:35, 0.0,
  Until: 03:35, 0.0,
  Until: 03:35, 0.0,
  Until: 03:35, 0.0,
  Until: 03:36, 0.0,
  Until: 03:36, 0.0,
  Until: 03:36, 0.0,
  Until: 03:36, 0.0,
  Until: 03:36, 0.0,
  Until: 03:36, 0.0,
  Until: 03:36, 0.0,
  Until: 03:36, 0.0,
  Until: 03:36, 0.0,
  Until: 03:36, 0.0,
  Until: 03:36, 0.0,
  Until: 03:36, 0.0,
  Until: 03:37, 0.0,
  Until: 03:37, 0.0,
  Until: 03:37, 0.0,
  Until: 03:37, 0.0,
  Until: 03:37, 0.0,
  Until: 03:37, 0.0,
  Until: 03:37, 0.0,
  Until: 03:37, 0.0,
  Until: 03:37, 0.0,
  Until: 03:37, 0.0,
  Until: 03:37, 0.0,
  Until: 03:37, 0.0,
  Until: 03:38, 0.0,
  Until: 03:38, 0.0,
  Until: 03:38, 0.0,
  Until: 03:38, 0.0,
  Until: 03:38, 0.0,
  Until: 03:38, 0.0,
  Until: 03:38, 0.0,
  Until: 03:38, 0.0,
  Until: 03:38, 0.0,
  Until: 03:38, 0.0,
  Until: 03:38, 0.0,
  Until: 03:38, 0.0,
  Until: 03:39, 0.0,
  Until: 03:39, 0.0,
  Until: 03:39, 0.0,
  Until: 03:39, 0.0,
  Until: 03:39, 0.0,
  Until: 03:39, 0.0,
  Until: 03:39, 0.0,
  Until: 03:39, 0.0,
  Until: 03:39, 0.0,
  Until: 03:39, 0.0,
  Until: 03:39, 0.0,
  Until: 03:39, 0.0,
  Until: 03:40, 0.0,
  Until: 03:40, 0.0,
  Until: 03:40, 0.0,
  Until: 03:40, 0.0,
  Until: 03:40, 0.0,
  Until: 03:40, 0.0,
  Until: 03:40, 0.0,
  Until: 03:40, 0.0,
  Until: 03:40, 0.0,
  Until: 03:40, 0.0,
  Until: 03:40, 0.0,
  Until: 03:40, 0.0,
  Until: 03:41, 0.0,
  Until: 03:41, 0.0,
  Until: 03:41, 0.0,
  Until: 03:41, 0.0,
  Until: 03:41, 0.0,
  Until: 03:41, 0.0,
  Until: 03:41, 0.0,
  Until: 03:41, 0.0,
  Until: 03:41, 0.0,
  Until: 03:41, 0.0,
  Until: 03:41, 0.0,
  Until: 03:41, 0.0,
  Until: 03:42, 0.0,
  Until: 03:42, 0.0,
  Until: 03:42, 0.0,
  Until: 03:42, 0.0,
  Until: 03:42, 0.0,
  Until: 03:42, 0.0,
  Until: 03:42, 0.0,
  Until: 03:42, 0.0,
  Until: 03:42, 0.0,
  Until: 03:42, 0.0,
  Until: 03:42, 0.0,
  Until: 03:42, 0.0,
  Until: 03:43, 0.0,
  Until: 03:43, 0.0,
  Until: 03:43, 0.0,
  Until: 03:43, 0.0,
  Until: 03:43, 0.0,
  Until: 03:43, 0.0,
  Until: 03:43, 0.0,
  Until: 03:43, 0.0,
  Until: 03:43, 0.0,
  Until: 03:43, 0.0,
  Until: 03:43, 0.0,
  Until: 03:43, 0.0,
  Until: 03:44, 0.0,
  Until: 03:44, 0.0,
  Until: 03:44, 0.0,
  Until: 03:44, 0.0,
  Until: 03:44, 0.0,
  Until: 03:44, 0.0,
  Until: 03:44, 0.0,
  Until: 03:44, 0.0,
  Until: 03:44, 0.0,
  Until: 03:44, 0.0,
  Until: 03:44, 0.0,
  Until: 03:44, 0.0,
  Until: 03:45, 0.0,
  Until: 03:45, 0.0,
  Until: 03:45, 0.0,
  Until: 03:45, 0.0,
  Until: 03:45, 0.0,
  Until: 03:45, 0.0,
  Until: 03:45, 0.0,
  Until: 03:45, 0.0,
  Until: 03:45, 0.0,
  Until: 03:45, 0.0,
  Until: 03:45, 0.0,
  Until: 03:45, 0.0,
  Until: 03:46, 0.0,
  Until: 03:46, 0.0,
  Until: 03:46, 0.0,
  Until: 03:46, 0.0,
  Until: 03:46, 0.0,
  Until: 03:46, 0.0,
  Until: 03:46, 0.0,
  Until: 03:46, 0.0,
  Until: 03:46, 0.0,
  Until: 03:46, 0.0,
  Until: 03:46, 0.0,
  Until: 03:46, 0.0,
  Until: 03:47, 0.0,
  Until: 03:47, 0.0,
  Until: 03:47, 0.0,
  Until: 03:47, 0.0,
  Until: 03:47, 0.0,
  Until: 03:47, 0.0,
  Until: 03:47, 0.0,
  Until: 03:47, 0.0,
  Until: 03:47, 0.0,
  Until: 03:47, 0.0,
  Until: 03:47, 0.0,
  Until: 03:47, 0.0,
  Until: 03:48, 0.0,
  Until: 03:48, 0.0,
  Until: 03:48, 0.0,
  Until: 03:48, 0.0,
  Until: 03:48, 0.0,
  Until: 03:48, 0.0,
  Until: 03:48, 0.0,
  Until: 03:48, 0.0,
  Until: 03:48, 0.0,
  Until: 03:48, 0.0,
  Until: 03:48, 0.0,
  Until: 03:48, 0.0,
  Until: 03:49, 0.0,
  Until: 03:49, 0.0,
  Until: 03:49, 0.0,
  Until: 03:49, 0.0,
  Until: 03:49, 0.0,
  Until: 03:49, 0.0,
  Until: 03:49, 0.0,
  Until: 03:49, 0.0,
  Until: 03:49, 0.0,
  Until: 03:49, 0.0,
  Until: 03:49, 0.0,
  Until: 03:49, 0.0,
  Until: 03:50, 0.0,
  Until: 03:50, 0.0,
  Until: 03:50, 0.0,
  Until: 03:50, 0.0,
  Until: 03:50, 0.0,
  Until: 03:50, 0.0,
  Until: 03:50, 0.0,
  Until: 03:50, 0.0,
  Until: 03:50, 0.0,
  Until: 03:50, 0.0,
  Until: 03:50, 0.0,
  Until: 03:50, 0.0,
  Until: 03:51, 0.0,
  Until: 03:51, 0.0,
  Until: 03:51, 0.0,
  Until: 03:51, 0.0,
  Until: 03:51, 0.0,
  Until: 03:51, 0.0,
  Until: 03:51, 0.0,
  Until: 03:51, 0.0,
  Until: 03:51, 0.0,
  Until: 03:51, 0.0,
  Until: 03:51, 0.0,
  Until: 03:51, 0.0,
  Until: 03:52, 0.0,
  Until: 03:52, 0.0,
  Until: 03:52, 0.0,
  Until: 03:52, 0.0,
  Until: 03:52, 0.0,
  Until: 03:52, 0.0,
  Until: 03:52, 0.0,
  Until: 03:52, 0.0,
  Until: 03:52, 0.0,
  Until: 03:52, 0.0,
  Until: 03:52, 0.0,
  Until: 03:52, 0.0,
  Until: 03:53, 0.0,
  Until: 03:53, 0.0,
  Until: 03:53, 0.0,
  Until: 03:53, 0.0,
  Until: 03:53, 0.0,
  Until: 03:53, 0.0,
  Until: 03:53, 0.0,
  Until: 03:53, 0.0,
  Until: 03:53, 0.0,
  Until: 03:53, 0.0,
  Until: 03:53, 0.0,
  Until: 03:53, 0.0,
  Until: 03:54, 0.0,
  Until: 03:54, 0.0,
  Until: 03:54, 0.0,
  Until: 03:54, 0.0,
  Until: 03:54, 0.0,
  Until: 03:54, 0.0,
  Until: 03:54, 0.0,
  Until: 03:54, 0.0,
  Until: 03:54, 0.0,
  Until: 03:54, 0.0,
  Until: 03:54, 0.0,
  Until: 03:54, 0.0,
  Until: 03:55, 0.0,
  Until: 03:55, 0.0,
  Until: 03:55, 0.0,
  Until: 03:55, 0.0,
  Until: 03:55, 0.0,
  Until: 03:55, 0.0,
  Until: 03:55, 0.0,
  Until: 03:55, 0.0,
  Until: 03:55, 0.0,
  Until: 03:55, 0.0,
  Until: 03:55, 0.0,
  Until: 03:55, 0.0,
  Until: 03:56, 0.0,
  Until: 03:56, 0.0,
  Until: 03:56, 0.0,
  Until: 03:56, 0.0,
  Until: 03:56, 0.0,
  Until: 03:56, 0.0,
  Until: 03:56, 0.0,
  Until: 03:56, 0.0,
  Until: 03:56, 0.0,
  Until: 03:56, 0.0,
  Until: 03:56, 0.0,
  Until: 03:56, 0.0,
  Until: 03:57, 0.0,
  Until: 03:57, 0.0,
  Until: 03:57, 0.0,
  Until: 03:57, 0.0,
  Until: 03:57, 0.0,
  Until: 03:57, 0.0,
  Until: 03:57, 0.0,
  Until: 03:57, 0.0,
  Until: 03:57, 0.0,
  Until: 03:57, 0.0,
  Until: 03:57, 0.0,
  Until: 03:57, 0.0,
  Until: 03:58, 0.0,
  Until: 03:58, 0.0,
  Until: 03:58, 0.0,
  Until: 03:58, 0.0,
  Until: 03:58, 0.0,
  Until: 03:58, 0.0,
  Until: 03:58, 0.0,
  Until: 03:58, 0.0,
  Until: 03:58, 0.0,
  Until: 03:58, 0.0,
  Until: 03:58, 0.0,
  Until: 03:58, 0.0,
  Until: 03:59, 0.0,
  Until: 03:59, 0.0,
  Until: 03:59, 0.0,
  Until: 03:59, 0.0,
  Until: 03:59, 0.0,
  Until: 03:59, 0.0,
  Until: 03:59, 0.0,
  Until: 03:59, 0.0,
  Until: 03:59, 0.0,
  Until: 03:59, 0.0,
  Until: 03:59, 0.0,
  Until: 03:59, 0.0,
  Until: 04:00, 0.0,
  Until: 04:00, 0.0,
  Until: 04:00, 0.0,
  Until: 04:00, 0.0,
  Until: 04:00, 0.0,
  Until: 04:00, 0.0,
  Until: 04:00, 0.0,
  Until: 04:00, 0.0,
  Until: 04:00, 0.0,
  Until: 04:00, 0.0,
  Until: 04:00, 0.0,
  Until: 04:00, 0.0,
  Until: 04:01, 0.0,
  Until: 04:01, 0.0,
  Until: 04:01, 0.0,
  Until: 04:01, 0.0,
  Until: 04:01, 0.0,
  Until: 04:01, 0.0,
  Until: 04:01, 0.0,
  Until: 04:01, 0.0,
  Until: 04:01, 0.0,
  Until: 04:01, 0.0,
  Until: 04:01, 0.0,
  Until: 04:01, 0.0,
  Until: 04:02, 0.0,
  Until: 04:02, 0.0,
  Until: 04:02, 0.0,
  Until: 04:02, 0.0,
  Until: 04:02, 0.0,
  Until: 04:02, 0.0,
  Until: 04:02, 0.0,
  Until: 04:02, 0.0,
  Until: 04:02, 0.0,
  Until: 04:02, 0.0,
  Until: 04:02, 0.0,
  Until: 04:02, 0.0,
  Until: 04:03, 0.0,
  Until: 04:03, 0.0,
  Until: 04:03, 0.0,
  Until: 04:03, 0.0,
  Until: 04:03, 0.0,
  Until: 04:03, 0.0,
  Until: 04:03, 0.0,
  Until: 04:03, 0.0,
  Until: 04:03, 0.0,
  Until: 04:03, 0.0,
  Until: 04:03, 0.0,
  Until: 04:03, 0.0,
  Until: 04:04, 0.0,
  Until: 04:04, 0.0,
  Until: 04:04, 0.0,
  Until: 04:04, 0.0,
  Until: 04:04, 0.0,
  Until: 04:04, 0.0,
  Until: 04:04, 0.0,
  Until: 04:04, 0.0,
  Until: 04:04, 0.0,
  Until: 04:04, 0.0,
  Until: 04:04, 0.0,
  Until: 04:04, 0.0,
  Until: 04:05, 0.0,
  Until: 04:05, 0.0,
  Until: 04:05, 0.0,
  Until: 04:05, 0.0,
  Until: 04:05, 0.0,
  Until: 04:05, 0.0,
  Until: 04:05, 0.0,
  Until: 04:05, 0.0,
  Until: 04:05, 0.0,
  Until: 04:05, 0.0,
  Until: 04:05, 0.0,
  Until: 04:05, 0.0,
  Until: 04:06, 0.0,
  Until: 04:06, 0.0,
  Until: 04:06, 0.0,
  Until: 04:06, 0.0,
  Until: 04:06, 0.0,
  Until: 04:06, 0.0,
  Until: 04:06, 0.0,
  Until: 04:06, 0.0,
  Until: 04:06, 0.0,
  Until: 04:06, 0.0,
  Until: 04:06, 0.0,
  Until: 04:06, 0.0,
  Until: 04:07, 0.0,
  Until: 04:07, 0.0,
  Until: 04:07, 0.0,
  Until: 04:07, 0.0,
  Until: 04:07, 0.0,
  Until: 04:07, 0.0,
  Until: 04:07, 0.0,
  Until: 04:07, 0.0,
  Until: 04:07, 0.0,
  Until: 04:07, 0.0,
  Until: 04:07, 0.0,
  Until: 04:07, 0.0,
  Until: 04:08, 0.0,
  Until: 04:08, 0.0,
  Until: 04:08, 0.0,
  Until: 04:08, 0.0,
  Until: 04:08, 0.0,
  Until: 04:08, 0.0,
  Until: 04:08, 0.0,
  Until: 04:08, 0.0,
  Until: 04:08, 0.0,
  Until: 04:08, 0.0,
  Until: 04:08, 0.0,
  Until: 04:08, 0.0,
  Until: 04:09, 0.0,
  Until: 04:09, 0.0,
  Until: 04:09, 0.0,
  Until: 04:09, 0.0,
  Until: 04:09, 0.0,
  Until: 04:09, 0.0,
  Until: 04:09, 0.0,
  Until: 04:09, 0.0,
  Until: 04:09, 0.0,
  Until: 04:09, 0.0,
  Until: 04:09, 0.0,
  Until: 04:09, 0.0,
  Until: 04:10, 0.0,
  Until: 04:10, 0.0,
  Until: 04:10, 0.0,
  Until: 04:10, 0.0,
  Until: 04:10, 0.0,
  Until: 04:10, 0.0,
  Until: 04:10, 0.0,
  Until: 04:10, 0.0,
  Until: 04:10, 0.0,
  Until: 04:10, 0.0,
  Until: 04:10, 0.0,
  Until: 04:10, 0.0,
  Until: 04:11, 0.0,
  Until: 04:11, 0.0,
  Until: 04:11, 0.0,
  Until: 04:11, 0.0,
  Until: 04:11, 0.0,
  Until: 04:11, 0.0,
  Until: 04:11, 0.0,
  Until: 04:11, 0.0,
  Until: 04:11, 0.0,
  Until: 04:11, 0.0,
  Until: 04:11, 0.0,
  Until: 04:11, 0.0,
  Until: 04:12, 0.0,
  Until: 04:12, 0.0,
  Until: 04:12, 0.0,
  Until: 04:12, 0.0,
  Until: 04:12, 0.0,
  Until: 04:12, 0.0,
  Until: 04:12, 0.0,
  Until: 04:12, 0.0,
  Until: 04:12, 0.0,
  Until: 04:12, 0.0,
  Until: 04:12, 0.0,
  Until: 04:12, 0.0,
  Until: 04:13, 0.0,
  Until: 04:13, 0.0,
  Until: 04:13, 0.0,
  Until: 04:13, 0.0,
  Until: 04:13, 0.0,
  Until: 04:13, 0.0,
  Until: 04:13, 0.0,
  Until: 04:13, 0.0,
  Until: 04:13, 0.0,
  Until: 04:13, 0.0,
  Until: 04:13, 0.0,
  Until: 04:13, 0.0,
  Until: 04:14, 0.0,
  Until: 04:14, 0.0,
  Until: 04:14, 0.0,
  Until: 04:14, 0.0,
  Until: 04:14, 0.0,
  Until: 04:14, 0.0,
  Until: 04:14, 0.0,
  Until: 04:14, 0.0,
  Until: 04:14, 0.0,
  Until: 04:14, 0.0,
  Until: 04:14, 0.0,
  Until: 04:14, 0.0,
  Until: 04:15, 0.0,
  Until: 04:15, 0.0,
  Until: 04:15, 0.0,
  Until: 04:15, 0.0,
  Until: 04:15, 0.0,
  Until: 04:15, 0.0,
  Until: 04:15, 0.0,
  Until: 04:15, 0.0,
  Until: 04:15, 0.0,
  Until: 04:15, 0.0,
  Until: 04:15, 0.0,
  Until: 04:15, 0.0,
  Until: 04:16, 0.0,
  Until: 04:16, 0.0,
  Until: 04:16, 0.0,
  Until: 04:16, 0.0,
  Until: 04:16, 0.0,
  Until: 04:16, 0.0,
  Until: 04:16, 0.0,
  Until: 04:16, 0.0,
  Until: 04:16, 0.0,
  Until: 04:16, 0.0,
  Until: 04:16, 0.0,
  Until: 04:16, 0.0,
  Until: 04:17, 0.0,
  Until: 04:17, 0.0,
  Until: 04:17, 0.0,
  Until: 04:17, 0.0,
  Until: 04:17, 0.0,
  Until: 04:17, 0.0,
  Until: 04:17, 0.0,
  Until: 04:17, 0.0,
  Until: 04:17, 0.0,
  Until: 04:17, 0.0,
  Until: 04:17, 0.0,
  Until: 04:17, 0.0,
  Until: 04:18, 0.0,
  Until: 04:18, 0.0,
  Until: 04:18, 0.0,
  Until: 04:18, 0.0,
  Until: 04:18, 0.0,
  Until: 04:18, 0.0,
  Until: 04:18, 0.0,
  Until: 04:18, 0.0,
  Until: 04:18, 0.0,
  Until: 04:18, 0.0,
  Until: 04:18, 0.0,
  Until: 04:18, 0.0,
  Until: 04:19, 0.0,
  Until: 04:19, 0.0,
  Until: 04:19, 0.0,
  Until: 04:19, 0.0,
  Until: 04:19, 0.0,
  Until: 04:19, 0.0,
  Until: 04:19, 0.0,
  Until: 04:19, 0.0,
  Until: 04:19, 0.0,
  Until: 04:19, 0.0,
  Until: 04:19, 0.0,
  Until: 04:19, 0.0,
  Until: 04:20, 0.0,
  Until: 04:20, 0.0,
  Until: 04:20, 0.0,
  Until: 04:20, 0.0,
  Until: 04:20, 0.0,
  Until: 04:20, 0.0,
  Until: 04:20, 0.0,
  Until: 04:20, 0.0,
  Until: 04:20, 0.0,
  Until: 04:20, 0.0,
  Until: 04:20, 0.0,
  Until: 04:20, 0.0,
  Until: 04:21, 0.0,
  Until: 04:21, 0.0,
  Until: 04:21, 0.0,
  Until: 04:21, 0.0,
  Until: 04:21, 0.0,
  Until: 04:21, 0.0,
  Until: 04:21, 0.0,
  Until: 04:21, 0.0,
  Until: 04:21, 0.0,
  Until: 04:21, 0.0,
  Until: 04:21, 0.0,
  Until: 04:21, 0.0,
  Until: 04:22, 0.0,
  Until: 04:22, 0.0,
  Until: 04:22, 0.0,
  Until: 04:22, 0.0,
  Until: 04:22, 0.0,
  Until: 04:22, 0.0,
  Until: 04:22, 0.0,
  Until: 04:22, 0.0,
  Until: 04:22, 0.0,
  Until: 04:22, 0.0,
  Until: 04:22, 0.0,
  Until: 04:22, 0.0,
  Until: 04:23, 0.0,
  Until: 04:23, 0.0,
  Until: 04:23, 0.0,
  Until: 04:23, 0.0,
  Until: 04:23, 0.0,
  Until: 04:23, 0.0,
  Until: 04:23, 0.0,
  Until: 04:23, 0.0,
  Until: 04:23, 0.0,
  Until: 04:23, 0.0,
  Until: 04:23, 0.0,
  Until: 04:23, 0.0,
  Until: 04:24, 0.0,
  Until: 04:24, 0.0,
  Until: 04:24, 0.0,
  Until: 04:24, 0.0,
  Until: 04:24, 0.0,
  Until: 04:24, 0.0,
  Until: 04:24, 0.0,
  Until: 04:24, 0.0,
  Until: 04:24, 0.0,
  Until: 04:24, 0.0,
  Until: 04:24, 0.0,
  Until: 04:24, 0.0,
  Until: 04:25, 0.0,
  Until: 04:25, 0.0,
  Until: 04:25, 0.0,
  Until: 04:25, 0.0,
  Until: 04:25, 0.0,
  Until: 04:25, 0.0,
  Until: 04:25, 0.0,
  Until: 04:25, 0.0,
  Until: 04:25, 0.0,
  Until: 04:25, 0.0,
  Until: 04:25, 0.0,
  Until: 04:25, 0.0,
  Until: 04:26, 0.0,
  Until: 04:26, 0.0,
  Until: 04:26, 0.0,
  Until: 04:26, 0.0,
  Until: 04:26, 0.0,
  Until: 04:26, 0.0,
  Until: 04:26, 0.0,
  Until: 04:26, 0.0,
  Until: 04:26, 0.0,
  Until: 04:26, 0.0,
  Until: 04:26, 0.0,
  Until: 04:26, 0.0,
  Until: 04:27, 0.0,
  Until: 04:27, 0.0,
  Until: 04:27, 0.0,
  Until: 04:27, 0.0,
  Until: 04:27, 0.0,
  Until: 04:27, 0.0,
  Until: 04:27, 0.0,
  Until: 04:27, 0.0,
  Until: 04:27, 0.0,
  Until: 04:27, 0.0,
  Until: 04:27, 0.0,
  Until: 04:27, 0.0,
  Until: 04:28, 0.0,
  Until: 04:28, 0.0,
  Until: 04:28, 0.0,
  Until: 04:28, 0.0,
  Until: 04:28, 0.0,
  Until: 04:28, 0.0,
  Until: 04:28, 0.0,
  Until: 04:28, 0.0,
  Until: 04:28, 0.0,
  Until: 04:28, 0.0,
  Until: 04:28, 0.0,
  Until: 04:28, 0.0,
  Until: 04:29, 0.0,
  Until: 04:29, 0.0,
  Until: 04:29, 0.0,
  Until: 04:29, 0.0,
  Until: 24:00, 0.0;



Schedule:Compact,
  COOLING_AVAILABILITY_SCH,               !- Name
  Fraction,                               !- Schedule Type Limits Name
  Through: 12/31,                         !- Field 1
  For: AllDays,                           !- Field 2
  Until: 24:00, 1.0;


Schedule:Compact,
  SUPPLY_TEMP_SCH,
  Temperature,
  Through: 12/31,
  For: AllDays,
  Until: 03:16, 26.25,
  Until: 03:16, 26.25,
  Until: 03:16, 26.25,
  Until: 03:16, 26.25,
  Until: 03:16, 26.25,
  Until: 03:17, 26.25,
  Until: 03:17, 26.25,
  Until: 03:17, 26.25,
  Until: 03:17, 26.25,
  Until: 03:17, 18.89,
  Until: 03:17, 18.86,
  Until: 03:17, 18.80,
  Until: 03:17, 18.75,
  Until: 03:17, 18.69,
  Until: 03:17, 18.64,
  Until: 03:17, 18.60,
  Until: 03:17, 18.55,
  Until: 03:18, 18.50,
  Until: 03:18, 18.45,
  Until: 03:18, 18.40,
  Until: 03:18, 18.35,
  Until: 03:18, 18.29,
  Until: 03:18, 18.25,
  Until: 03:18, 18.20,
  Until: 03:18, 18.16,
  Until: 03:18, 18.13,
  Until: 03:18, 18.09,
  Until: 03:18, 18.05,
  Until: 03:18, 18.02,
  Until: 03:19, 17.99,
  Until: 03:19, 17.96,
  Until: 03:19, 17.94,
  Until: 03:19, 17.91,
  Until: 03:19, 17.89,
  Until: 03:19, 17.88,
  Until: 03:19, 17.87,
  Until: 03:19, 17.85,
  Until: 03:19, 17.84,
  Until: 03:19, 17.83,
  Until: 03:19, 17.81,
  Until: 03:19, 17.80,
  Until: 03:20, 17.78,
  Until: 03:20, 17.87,
  Until: 03:20, 18.06,
  Until: 03:20, 18.20,
  Until: 03:20, 18.26,
  Until: 03:20, 18.31,
  Until: 03:20, 18.28,
  Until: 03:20, 18.22,
  Until: 03:20, 18.14,
  Until: 03:20, 18.04,
  Until: 03:20, 17.96,
  Until: 03:20, 17.87,
  Until: 03:21, 17.80,
  Until: 03:21, 17.74,
  Until: 03:21, 17.68,
  Until: 03:21, 17.62,
  Until: 03:21, 17.56,
  Until: 03:21, 17.51,
  Until: 03:21, 17.47,
  Until: 03:21, 17.42,
  Until: 03:21, 17.38,
  Until: 03:21, 17.35,
  Until: 03:21, 17.32,
  Until: 03:21, 17.29,
  Until: 03:22, 17.27,
  Until: 03:22, 17.24,
  Until: 03:22, 17.21,
  Until: 03:22, 17.19,
  Until: 03:22, 17.16,
  Until: 03:22, 17.14,
  Until: 03:22, 17.12,
  Until: 03:22, 17.11,
  Until: 03:22, 17.15,
  Until: 03:22, 17.18,
  Until: 03:22, 17.27,
  Until: 03:22, 17.39,
  Until: 03:23, 17.55,
  Until: 03:23, 17.68,
  Until: 03:23, 17.86,
  Until: 03:23, 18.14,
  Until: 03:23, 18.37,
  Until: 03:23, 18.64,
  Until: 03:23, 18.92,
  Until: 03:23, 19.23,
  Until: 03:23, 19.56,
  Until: 03:23, 19.83,
  Until: 03:23, 20.19,
  Until: 03:23, 20.47,
  Until: 03:24, 20.77,
  Until: 03:24, 21.08,
  Until: 03:24, 21.37,
  Until: 03:24, 21.61,
  Until: 03:24, 21.80,
  Until: 03:24, 22.00,
  Until: 03:24, 22.16,
  Until: 03:24, 22.29,
  Until: 03:24, 22.37,
  Until: 03:24, 22.43,
  Until: 03:24, 22.47,
  Until: 03:24, 22.48,
  Until: 03:25, 22.46,
  Until: 03:25, 22.45,
  Until: 03:25, 22.41,
  Until: 03:25, 22.36,
  Until: 03:25, 22.30,
  Until: 03:25, 22.22,
  Until: 03:25, 22.14,
  Until: 03:25, 22.07,
  Until: 03:25, 21.98,
  Until: 03:25, 21.90,
  Until: 03:25, 21.80,
  Until: 03:25, 21.69,
  Until: 03:26, 21.58,
  Until: 03:26, 21.47,
  Until: 03:26, 21.36,
  Until: 03:26, 21.28,
  Until: 03:26, 21.18,
  Until: 03:26, 21.08,
  Until: 03:26, 20.98,
  Until: 03:26, 20.88,
  Until: 03:26, 20.77,
  Until: 03:26, 20.69,
  Until: 03:26, 20.60,
  Until: 03:26, 20.51,
  Until: 03:27, 20.41,
  Until: 03:27, 20.30,
  Until: 03:27, 20.19,
  Until: 03:27, 20.11,
  Until: 03:27, 20.02,
  Until: 03:27, 19.92,
  Until: 03:27, 19.83,
  Until: 03:27, 19.74,
  Until: 03:27, 19.64,
  Until: 03:27, 19.57,
  Until: 03:27, 19.49,
  Until: 03:27, 19.40,
  Until: 03:28, 19.32,
  Until: 03:28, 19.24,
  Until: 03:28, 19.17,
  Until: 03:28, 19.10,
  Until: 03:28, 19.02,
  Until: 03:28, 18.94,
  Until: 03:28, 18.88,
  Until: 03:28, 18.79,
  Until: 03:28, 18.71,
  Until: 03:28, 18.64,
  Until: 03:28, 18.58,
  Until: 03:28, 18.50,
  Until: 03:29, 18.44,
  Until: 03:29, 18.39,
  Until: 03:29, 18.33,
  Until: 03:29, 18.26,
  Until: 03:29, 18.21,
  Until: 03:29, 18.16,
  Until: 03:29, 18.10,
  Until: 03:29, 18.05,
  Until: 03:29, 18.01,
  Until: 03:29, 17.99,
  Until: 03:29, 17.97,
  Until: 03:29, 18.02,
  Until: 03:30, 18.12,
  Until: 03:30, 18.19,
  Until: 03:30, 18.39,
  Until: 03:30, 18.55,
  Until: 03:30, 18.77,
  Until: 03:30, 19.01,
  Until: 03:30, 19.24,
  Until: 03:30, 19.42,
  Until: 03:30, 19.59,
  Until: 03:30, 19.75,
  Until: 03:30, 19.88,
  Until: 03:30, 19.98,
  Until: 03:31, 20.06,
  Until: 03:31, 20.12,
  Until: 03:31, 20.15,
  Until: 03:31, 20.17,
  Until: 03:31, 20.17,
  Until: 03:31, 20.15,
  Until: 03:31, 20.13,
  Until: 03:31, 20.11,
  Until: 03:31, 20.06,
  Until: 03:31, 20.02,
  Until: 03:31, 19.97,
  Until: 03:31, 19.92,
  Until: 03:32, 19.86,
  Until: 03:32, 19.81,
  Until: 03:32, 19.74,
  Until: 03:32, 19.68,
  Until: 03:32, 19.61,
  Until: 03:32, 19.54,
  Until: 03:32, 19.47,
  Until: 03:32, 19.39,
  Until: 03:32, 19.31,
  Until: 03:32, 19.24,
  Until: 03:32, 19.17,
  Until: 03:32, 19.10,
  Until: 03:33, 19.03,
  Until: 03:33, 18.96,
  Until: 03:33, 18.90,
  Until: 03:33, 18.84,
  Until: 03:33, 18.79,
  Until: 03:33, 18.74,
  Until: 03:33, 18.70,
  Until: 03:33, 18.68,
  Until: 03:33, 18.65,
  Until: 03:33, 18.63,
  Until: 03:33, 18.62,
  Until: 03:33, 18.61,
  Until: 03:34, 18.60,
  Until: 03:34, 18.59,
  Until: 03:34, 18.58,
  Until: 03:34, 18.58,
  Until: 03:34, 18.57,
  Until: 03:34, 18.57,
  Until: 03:34, 18.52,
  Until: 03:34, 18.47,
  Until: 03:34, 18.44,
  Until: 03:34, 18.41,
  Until: 03:34, 18.39,
  Until: 03:34, 18.37,
  Until: 03:35, 18.35,
  Until: 03:35, 18.34,
  Until: 03:35, 18.33,
  Until: 03:35, 18.33,
  Until: 03:35, 18.32,
  Until: 03:35, 18.32,
  Until: 03:35, 18.31,
  Until: 03:35, 18.31,
  Until: 03:35, 18.31,
  Until: 03:35, 18.30,
  Until: 03:35, 18.30,
  Until: 03:35, 18.30,
  Until: 03:36, 18.30,
  Until: 03:36, 18.30,
  Until: 03:36, 18.30,
  Until: 03:36, 18.30,
  Until: 03:36, 18.30,
  Until: 03:36, 18.30,
  Until: 03:36, 18.30,
  Until: 03:36, 18.30,
  Until: 03:36, 18.30,
  Until: 03:36, 18.30,
  Until: 03:36, 18.30,
  Until: 03:36, 18.30,
  Until: 03:37, 18.30,
  Until: 03:37, 18.30,
  Until: 03:37, 18.30,
  Until: 03:37, 18.31,
  Until: 03:37, 18.33,
  Until: 03:37, 18.35,
  Until: 03:37, 18.37,
  Until: 03:37, 18.41,
  Until: 03:37, 18.45,
  Until: 03:37, 18.50,
  Until: 03:37, 18.56,
  Until: 03:37, 18.63,
  Until: 03:38, 18.70,
  Until: 03:38, 18.78,
  Until: 03:38, 18.87,
  Until: 03:38, 18.96,
  Until: 03:38, 19.06,
  Until: 03:38, 19.17,
  Until: 03:38, 19.28,
  Until: 03:38, 19.40,
  Until: 03:38, 19.53,
  Until: 03:38, 19.66,
  Until: 03:38, 19.79,
  Until: 03:38, 19.93,
  Until: 03:39, 20.07,
  Until: 03:39, 20.22,
  Until: 03:39, 20.37,
  Until: 03:39, 20.52,
  Until: 03:39, 20.67,
  Until: 03:39, 20.83,
  Until: 03:39, 20.98,
  Until: 03:39, 21.14,
  Until: 03:39, 21.30,
  Until: 03:39, 21.46,
  Until: 03:39, 21.63,
  Until: 03:39, 21.79,
  Until: 03:40, 21.95,
  Until: 03:40, 22.11,
  Until: 03:40, 22.26,
  Until: 03:40, 22.42,
  Until: 03:40, 22.57,
  Until: 03:40, 22.72,
  Until: 03:40, 22.87,
  Until: 03:40, 23.02,
  Until: 03:40, 23.16,
  Until: 03:40, 23.30,
  Until: 03:40, 23.43,
  Until: 03:40, 23.56,
  Until: 03:41, 23.68,
  Until: 03:41, 23.80,
  Until: 03:41, 23.92,
  Until: 03:41, 24.02,
  Until: 03:41, 24.12,
  Until: 03:41, 24.21,
  Until: 03:41, 24.30,
  Until: 03:41, 24.38,
  Until: 03:41, 24.45,
  Until: 03:41, 24.51,
  Until: 03:41, 24.56,
  Until: 03:41, 24.60,
  Until: 03:42, 24.58,
  Until: 03:42, 24.52,
  Until: 03:42, 24.42,
  Until: 03:42, 24.35,
  Until: 03:42, 24.25,
  Until: 03:42, 24.13,
  Until: 03:42, 23.99,
  Until: 03:42, 23.85,
  Until: 03:42, 23.70,
  Until: 03:42, 23.55,
  Until: 03:42, 23.39,
  Until: 03:42, 23.24,
  Until: 03:43, 23.11,
  Until: 03:43, 22.97,
  Until: 03:43, 22.83,
  Until: 03:43, 22.68,
  Until: 03:43, 22.54,
  Until: 03:43, 22.40,
  Until: 03:43, 22.28,
  Until: 03:43, 22.15,
  Until: 03:43, 22.03,
  Until: 03:43, 21.91,
  Until: 03:43, 21.79,
  Until: 03:43, 21.67,
  Until: 03:44, 21.58,
  Until: 03:44, 21.48,
  Until: 03:44, 21.38,
  Until: 03:44, 21.28,
  Until: 03:44, 21.18,
  Until: 03:44, 21.07,
  Until: 03:44, 20.96,
  Until: 03:44, 20.85,
  Until: 03:44, 20.76,
  Until: 03:44, 20.68,
  Until: 03:44, 20.60,
  Until: 03:44, 20.52,
  Until: 03:45, 20.45,
  Until: 03:45, 20.38,
  Until: 03:45, 20.29,
  Until: 03:45, 20.22,
  Until: 03:45, 20.17,
  Until: 03:45, 20.12,
  Until: 03:45, 20.05,
  Until: 03:45, 19.98,
  Until: 03:45, 19.91,
  Until: 03:45, 19.84,
  Until: 03:45, 19.76,
  Until: 03:45, 19.69,
  Until: 03:46, 19.64,
  Until: 03:46, 19.58,
  Until: 03:46, 19.51,
  Until: 03:46, 19.45,
  Until: 03:46, 19.41,
  Until: 03:46, 19.34,
  Until: 03:46, 19.29,
  Until: 03:46, 19.23,
  Until: 03:46, 19.18,
  Until: 03:46, 19.12,
  Until: 03:46, 19.08,
  Until: 03:46, 19.03,
  Until: 03:47, 18.99,
  Until: 03:47, 18.95,
  Until: 03:47, 18.91,
  Until: 03:47, 18.86,
  Until: 03:47, 18.81,
  Until: 03:47, 18.76,
  Until: 03:47, 18.73,
  Until: 03:47, 18.68,
  Until: 03:47, 18.65,
  Until: 03:47, 18.62,
  Until: 03:47, 18.58,
  Until: 03:47, 18.55,
  Until: 03:48, 18.52,
  Until: 03:48, 18.49,
  Until: 03:48, 18.46,
  Until: 03:48, 18.43,
  Until: 03:48, 18.40,
  Until: 03:48, 18.37,
  Until: 03:48, 18.34,
  Until: 03:48, 18.31,
  Until: 03:48, 18.27,
  Until: 03:48, 18.24,
  Until: 03:48, 18.22,
  Until: 03:48, 18.19,
  Until: 03:49, 18.16,
  Until: 03:49, 18.14,
  Until: 03:49, 18.11,
  Until: 03:49, 18.08,
  Until: 03:49, 18.06,
  Until: 03:49, 18.03,
  Until: 03:49, 18.01,
  Until: 03:49, 17.99,
  Until: 03:49, 17.97,
  Until: 03:49, 17.95,
  Until: 03:49, 17.93,
  Until: 03:49, 17.91,
  Until: 03:50, 17.89,
  Until: 03:50, 17.87,
  Until: 03:50, 17.85,
  Until: 03:50, 17.83,
  Until: 03:50, 17.81,
  Until: 03:50, 17.78,
  Until: 03:50, 17.75,
  Until: 03:50, 17.73,
  Until: 03:50, 17.71,
  Until: 03:50, 17.69,
  Until: 03:50, 17.66,
  Until: 03:50, 17.64,
  Until: 03:51, 17.63,
  Until: 03:51, 17.61,
  Until: 03:51, 17.60,
  Until: 03:51, 17.59,
  Until: 03:51, 17.58,
  Until: 03:51, 17.57,
  Until: 03:51, 17.56,
  Until: 03:51, 17.55,
  Until: 03:51, 17.54,
  Until: 03:51, 17.53,
  Until: 03:51, 17.52,
  Until: 03:51, 17.51,
  Until: 03:52, 17.49,
  Until: 03:52, 17.48,
  Until: 03:52, 17.47,
  Until: 03:52, 17.45,
  Until: 03:52, 17.44,
  Until: 03:52, 17.42,
  Until: 03:52, 17.40,
  Until: 03:52, 17.38,
  Until: 03:52, 17.36,
  Until: 03:52, 17.35,
  Until: 03:52, 17.33,
  Until: 03:52, 17.31,
  Until: 03:53, 17.29,
  Until: 03:53, 17.28,
  Until: 03:53, 17.27,
  Until: 03:53, 17.26,
  Until: 03:53, 17.25,
  Until: 03:53, 17.24,
  Until: 03:53, 17.22,
  Until: 03:53, 17.22,
  Until: 03:53, 17.20,
  Until: 03:53, 17.20,
  Until: 03:53, 17.19,
  Until: 03:53, 17.18,
  Until: 03:54, 17.17,
  Until: 03:54, 17.16,
  Until: 03:54, 17.16,
  Until: 03:54, 17.15,
  Until: 03:54, 17.14,
  Until: 03:54, 17.13,
  Until: 03:54, 17.12,
  Until: 03:54, 17.12,
  Until: 03:54, 17.11,
  Until: 03:54, 17.09,
  Until: 03:54, 17.08,
  Until: 03:54, 17.08,
  Until: 03:55, 17.07,
  Until: 03:55, 17.06,
  Until: 03:55, 17.05,
  Until: 03:55, 17.04,
  Until: 03:55, 17.03,
  Until: 03:55, 17.03,
  Until: 03:55, 17.02,
  Until: 03:55, 17.02,
  Until: 03:55, 17.01,
  Until: 03:55, 17.01,
  Until: 03:55, 17.00,
  Until: 03:55, 17.00,
  Until: 03:56, 17.00,
  Until: 03:56, 17.00,
  Until: 03:56, 17.00,
  Until: 03:56, 16.99,
  Until: 03:56, 16.99,
  Until: 03:56, 16.99,
  Until: 03:56, 16.99,
  Until: 03:56, 16.98,
  Until: 03:56, 16.98,
  Until: 03:56, 16.97,
  Until: 03:56, 16.97,
  Until: 03:56, 16.95,
  Until: 03:57, 16.94,
  Until: 03:57, 16.93,
  Until: 03:57, 16.92,
  Until: 03:57, 16.91,
  Until: 03:57, 16.90,
  Until: 03:57, 16.89,
  Until: 03:57, 16.87,
  Until: 03:57, 16.86,
  Until: 03:57, 16.85,
  Until: 03:57, 16.84,
  Until: 03:57, 16.83,
  Until: 03:57, 16.82,
  Until: 03:58, 16.81,
  Until: 03:58, 16.80,
  Until: 03:58, 16.79,
  Until: 03:58, 16.78,
  Until: 03:58, 16.78,
  Until: 03:58, 16.77,
  Until: 03:58, 16.77,
  Until: 03:58, 16.77,
  Until: 03:58, 16.77,
  Until: 03:58, 16.75,
  Until: 03:58, 16.74,
  Until: 03:58, 16.73,
  Until: 03:59, 16.72,
  Until: 03:59, 16.72,
  Until: 03:59, 16.71,
  Until: 03:59, 16.70,
  Until: 03:59, 16.70,
  Until: 03:59, 16.70,
  Until: 03:59, 16.69,
  Until: 03:59, 16.69,
  Until: 03:59, 16.69,
  Until: 03:59, 16.69,
  Until: 03:59, 16.69,
  Until: 03:59, 16.69,
  Until: 04:00, 16.69,
  Until: 04:00, 16.68,
  Until: 04:00, 16.67,
  Until: 04:00, 16.66,
  Until: 04:00, 16.65,
  Until: 04:00, 16.64,
  Until: 04:00, 16.63,
  Until: 04:00, 16.62,
  Until: 04:00, 16.62,
  Until: 04:00, 16.61,
  Until: 04:00, 16.60,
  Until: 04:00, 16.59,
  Until: 04:01, 16.57,
  Until: 04:01, 16.56,
  Until: 04:01, 16.55,
  Until: 04:01, 16.55,
  Until: 04:01, 16.54,
  Until: 04:01, 16.54,
  Until: 04:01, 16.53,
  Until: 04:01, 16.53,
  Until: 04:01, 16.53,
  Until: 04:01, 16.54,
  Until: 04:01, 16.54,
  Until: 04:01, 16.54,
  Until: 04:02, 16.54,
  Until: 04:02, 16.54,
  Until: 04:02, 16.55,
  Until: 04:02, 16.55,
  Until: 04:02, 16.55,
  Until: 04:02, 16.55,
  Until: 04:02, 16.55,
  Until: 04:02, 16.55,
  Until: 04:02, 16.54,
  Until: 04:02, 16.53,
  Until: 04:02, 16.53,
  Until: 04:02, 16.53,
  Until: 04:03, 16.53,
  Until: 04:03, 16.53,
  Until: 04:03, 16.53,
  Until: 04:03, 16.53,
  Until: 04:03, 16.53,
  Until: 04:03, 16.53,
  Until: 04:03, 16.53,
  Until: 04:03, 16.52,
  Until: 04:03, 16.51,
  Until: 04:03, 16.51,
  Until: 04:03, 16.51,
  Until: 04:03, 16.51,
  Until: 04:04, 16.51,
  Until: 04:04, 16.50,
  Until: 04:04, 16.51,
  Until: 04:04, 16.51,
  Until: 04:04, 16.51,
  Until: 04:04, 16.51,
  Until: 04:04, 16.51,
  Until: 04:04, 16.50,
  Until: 04:04, 16.49,
  Until: 04:04, 16.49,
  Until: 04:04, 16.48,
  Until: 04:04, 16.49,
  Until: 04:05, 16.49,
  Until: 04:05, 16.49,
  Until: 04:05, 16.49,
  Until: 04:05, 16.48,
  Until: 04:05, 16.48,
  Until: 04:05, 16.48,
  Until: 04:05, 16.47,
  Until: 04:05, 16.47,
  Until: 04:05, 16.47,
  Until: 04:05, 16.47,
  Until: 04:05, 16.48,
  Until: 04:05, 16.48,
  Until: 04:06, 16.48,
  Until: 04:06, 16.49,
  Until: 04:06, 16.49,
  Until: 04:06, 16.50,
  Until: 04:06, 16.50,
  Until: 04:06, 16.50,
  Until: 04:06, 16.50,
  Until: 04:06, 16.49,
  Until: 04:06, 16.49,
  Until: 04:06, 16.48,
  Until: 04:06, 16.48,
  Until: 04:06, 16.48,
  Until: 04:07, 16.47,
  Until: 04:07, 16.47,
  Until: 04:07, 16.47,
  Until: 04:07, 16.47,
  Until: 04:07, 16.74,
  Until: 04:07, 16.96,
  Until: 04:07, 17.32,
  Until: 04:07, 17.58,
  Until: 04:07, 17.64,
  Until: 04:07, 17.69,
  Until: 04:07, 17.70,
  Until: 04:07, 17.60,
  Until: 04:08, 17.51,
  Until: 04:08, 17.45,
  Until: 04:08, 17.39,
  Until: 04:08, 17.35,
  Until: 04:08, 17.20,
  Until: 04:08, 17.07,
  Until: 04:08, 16.95,
  Until: 04:08, 16.86,
  Until: 04:08, 16.78,
  Until: 04:08, 16.71,
  Until: 04:08, 16.65,
  Until: 04:08, 16.60,
  Until: 04:09, 16.56,
  Until: 04:09, 16.53,
  Until: 04:09, 16.50,
  Until: 04:09, 16.48,
  Until: 04:09, 16.46,
  Until: 04:09, 16.44,
  Until: 04:09, 16.42,
  Until: 04:09, 16.40,
  Until: 04:09, 16.38,
  Until: 04:09, 16.36,
  Until: 04:09, 16.34,
  Until: 04:09, 16.32,
  Until: 04:10, 16.31,
  Until: 04:10, 16.30,
  Until: 04:10, 16.30,
  Until: 04:10, 16.29,
  Until: 04:10, 16.29,
  Until: 04:10, 16.28,
  Until: 04:10, 16.27,
  Until: 04:10, 16.27,
  Until: 04:10, 16.27,
  Until: 04:10, 16.27,
  Until: 04:10, 16.27,
  Until: 04:10, 16.27,
  Until: 04:11, 16.27,
  Until: 04:11, 16.27,
  Until: 04:11, 16.27,
  Until: 04:11, 16.28,
  Until: 04:11, 16.28,
  Until: 04:11, 16.29,
  Until: 04:11, 16.30,
  Until: 04:11, 16.30,
  Until: 04:11, 16.31,
  Until: 04:11, 16.31,
  Until: 04:11, 16.31,
  Until: 04:11, 16.31,
  Until: 04:12, 16.32,
  Until: 04:12, 16.31,
  Until: 04:12, 16.31,
  Until: 04:12, 16.31,
  Until: 04:12, 16.30,
  Until: 04:12, 16.29,
  Until: 04:12, 16.29,
  Until: 04:12, 16.29,
  Until: 04:12, 16.28,
  Until: 04:12, 16.27,
  Until: 04:12, 16.27,
  Until: 04:12, 16.27,
  Until: 04:13, 16.27,
  Until: 04:13, 16.27,
  Until: 04:13, 16.27,
  Until: 04:13, 16.28,
  Until: 04:13, 16.29,
  Until: 04:13, 16.29,
  Until: 04:13, 16.29,
  Until: 04:13, 16.29,
  Until: 04:13, 16.28,
  Until: 04:13, 16.28,
  Until: 04:13, 16.28,
  Until: 04:13, 16.27,
  Until: 04:14, 16.27,
  Until: 04:14, 16.26,
  Until: 04:14, 16.26,
  Until: 04:14, 16.26,
  Until: 04:14, 16.26,
  Until: 04:14, 16.26,
  Until: 04:14, 16.25,
  Until: 04:14, 16.25,
  Until: 04:14, 16.25,
  Until: 04:14, 16.24,
  Until: 04:14, 16.24,
  Until: 04:14, 16.24,
  Until: 04:15, 16.24,
  Until: 04:15, 16.24,
  Until: 04:15, 16.24,
  Until: 04:15, 16.23,
  Until: 04:15, 16.23,
  Until: 04:15, 16.22,
  Until: 04:15, 16.22,
  Until: 04:15, 16.21,
  Until: 04:15, 16.20,
  Until: 04:15, 16.21,
  Until: 04:15, 16.20,
  Until: 04:15, 16.21,
  Until: 04:16, 16.21,
  Until: 04:16, 16.21,
  Until: 04:16, 16.21,
  Until: 04:16, 16.22,
  Until: 04:16, 16.22,
  Until: 04:16, 16.22,
  Until: 04:16, 16.23,
  Until: 04:16, 16.23,
  Until: 04:16, 16.23,
  Until: 04:16, 16.23,
  Until: 04:16, 16.24,
  Until: 04:16, 16.24,
  Until: 04:17, 16.25,
  Until: 04:17, 16.25,
  Until: 04:17, 16.26,
  Until: 04:17, 16.26,
  Until: 04:17, 16.27,
  Until: 04:17, 16.27,
  Until: 04:17, 16.27,
  Until: 04:17, 16.27,
  Until: 04:17, 16.27,
  Until: 04:17, 16.27,
  Until: 04:17, 16.27,
  Until: 04:17, 16.28,
  Until: 04:18, 16.28,
  Until: 04:18, 16.28,
  Until: 04:18, 16.28,
  Until: 04:18, 16.28,
  Until: 04:18, 16.28,
  Until: 04:18, 16.28,
  Until: 04:18, 16.28,
  Until: 04:18, 16.28,
  Until: 04:18, 16.28,
  Until: 04:18, 16.28,
  Until: 04:18, 16.28,
  Until: 04:18, 16.28,
  Until: 04:19, 16.28,
  Until: 04:19, 16.28,
  Until: 04:19, 16.28,
  Until: 04:19, 16.28,
  Until: 04:19, 16.28,
  Until: 04:19, 16.28,
  Until: 04:19, 16.28,
  Until: 04:19, 16.28,
  Until: 04:19, 16.29,
  Until: 04:19, 16.29,
  Until: 04:19, 16.31,
  Until: 04:19, 16.31,
  Until: 04:20, 16.32,
  Until: 04:20, 16.33,
  Until: 04:20, 16.33,
  Until: 04:20, 16.35,
  Until: 04:20, 16.36,
  Until: 04:20, 16.36,
  Until: 04:20, 16.37,
  Until: 04:20, 16.37,
  Until: 04:20, 16.38,
  Until: 04:20, 16.38,
  Until: 04:20, 16.39,
  Until: 04:20, 16.39,
  Until: 04:21, 16.40,
  Until: 04:21, 16.40,
  Until: 04:21, 16.40,
  Until: 04:21, 16.40,
  Until: 04:21, 16.40,
  Until: 04:21, 16.39,
  Until: 04:21, 16.38,
  Until: 04:21, 16.38,
  Until: 04:21, 16.37,
  Until: 04:21, 16.36,
  Until: 04:21, 16.35,
  Until: 04:21, 16.34,
  Until: 04:22, 16.34,
  Until: 04:22, 16.32,
  Until: 04:22, 16.31,
  Until: 04:22, 16.31,
  Until: 04:22, 16.31,
  Until: 04:22, 16.32,
  Until: 04:22, 16.32,
  Until: 04:22, 16.32,
  Until: 04:22, 16.32,
  Until: 04:22, 16.31,
  Until: 04:22, 16.31,
  Until: 04:22, 16.32,
  Until: 04:23, 16.32,
  Until: 04:23, 16.32,
  Until: 04:23, 16.32,
  Until: 04:23, 16.31,
  Until: 04:23, 16.30,
  Until: 04:23, 16.29,
  Until: 04:23, 16.28,
  Until: 04:23, 16.28,
  Until: 04:23, 16.26,
  Until: 04:23, 16.25,
  Until: 04:23, 16.24,
  Until: 04:23, 16.24,
  Until: 04:24, 16.23,
  Until: 04:24, 16.22,
  Until: 04:24, 16.21,
  Until: 04:24, 16.21,
  Until: 04:24, 16.21,
  Until: 04:24, 16.21,
  Until: 04:24, 16.20,
  Until: 04:24, 16.20,
  Until: 04:24, 16.20,
  Until: 04:24, 16.20,
  Until: 04:24, 16.20,
  Until: 04:24, 16.21,
  Until: 04:25, 16.21,
  Until: 04:25, 16.21,
  Until: 04:25, 16.21,
  Until: 04:25, 16.21,
  Until: 04:25, 16.20,
  Until: 04:25, 16.20,
  Until: 04:25, 16.20,
  Until: 04:25, 16.20,
  Until: 04:25, 16.20,
  Until: 04:25, 16.21,
  Until: 04:25, 16.21,
  Until: 04:25, 16.21,
  Until: 04:26, 16.21,
  Until: 04:26, 16.21,
  Until: 04:26, 16.20,
  Until: 04:26, 16.20,
  Until: 04:26, 16.19,
  Until: 04:26, 16.18,
  Until: 04:26, 16.18,
  Until: 04:26, 16.17,
  Until: 04:26, 16.17,
  Until: 04:26, 16.16,
  Until: 04:26, 16.15,
  Until: 04:26, 16.15,
  Until: 04:27, 16.15,
  Until: 04:27, 16.14,
  Until: 04:27, 16.14,
  Until: 04:27, 16.13,
  Until: 04:27, 16.12,
  Until: 04:27, 16.11,
  Until: 04:27, 16.11,
  Until: 04:27, 16.10,
  Until: 04:27, 16.10,
  Until: 04:27, 16.10,
  Until: 04:27, 16.10,
  Until: 04:27, 16.10,
  Until: 04:28, 16.10,
  Until: 04:28, 16.10,
  Until: 04:28, 16.11,
  Until: 04:28, 16.11,
  Until: 04:28, 16.11,
  Until: 04:28, 16.12,
  Until: 04:28, 16.13,
  Until: 04:28, 16.14,
  Until: 04:28, 16.14,
  Until: 04:28, 16.15,
  Until: 04:28, 16.15,
  Until: 04:28, 16.16,
  Until: 04:29, 16.17,
  Until: 04:29, 16.17,
  Until: 04:29, 16.18,
  Until: 04:29, 16.18,
  Until: 24:00, 16.18;







EnergyManagementSystem:Sensor,
  Supply_Flow_Sched_Val,
  SUPPLY_FLOW_FRACTION_SCH,
  Schedule Value;

EnergyManagementSystem:Actuator,
  Set_Chamber_Supply_Flow,
  CHAMBER_IDEALLOADS,
  Ideal Loads Air System,
  Air Mass Flow Rate;

EnergyManagementSystem:Sensor,
  Supply_Temp_Sched_Val,                  !- Name
  SUPPLY_TEMP_SCH,                        !- Output:Variable or Schedule Name
  Schedule Value;                         !- Output:Variable Index Key Name

EnergyManagementSystem:Actuator,
  Set_Chamber_Supply_Temp,                !- Name
  CHAMBER_IDEALLOADS,                     !- Component Unique Name
  Ideal Loads Air System,                 !- Component Type
  Air Temperature;                        !- Control Type

EnergyManagementSystem:Program,
  Set_Supply_Temp_Program,                !- Name
  Set Set_Chamber_Supply_Temp = Supply_Temp_Sched_Val, !- Program Line 1
  Set Set_Chamber_Supply_Flow = Supply_Flow_Sched_Val * 0.11404; !- Program Line 2

EnergyManagementSystem:ProgramCallingManager,
  Set_Supply_Temp_Manager,                !- Name
  InsideHVACSystemIterationLoop,          !- EnergyPlus Model Calling Point
  Set_Supply_Temp_Program;                !- Program Name 1
