LOCATION,Kandy,CP,LKA,SRC-TMYx,434440,7.33440,80.62660,5.5,477.0
DESIGN CONDITIONS,1,2025 ASHRAE Handbook -- Fundamentals - Chapter 14 Climatic Design Information,Heating,1,17.5,18.7,14.9,11.2,23.4,16.1,12.1,22.8,3.8,26.3,3.3,26.5,0.1,50,0.193,Cooling,4,8.8,32.2,23.5,31.5,23.7,30.8,23.8,25.5,29.8,25.1,29.3,24.8,28.8,1.3,140,24.2,20.3,27.4,23.9,19.9,27.1,23.6,19.6,26.8,81.1,30.1,79.5,29.5,78.3,29.2,27.5,Extremes,4.1,3.3,2.7,14.9,35.0,1.0,1.9,14.2,36.3,13.6,37.4,13.0,38.5,12.3,39.8,14.4,26.6,0.9,0.4,13.8,26.8,13.3,27.1,12.8,27.3,12.1,27.6
TYPICAL/EXTREME PERIODS,3,No Dry Season - Week Near Average Annual,Typical,7/23,7/29,No Dry Season - Week Near Annual Max,Extreme,4/23,4/29,No Dry Season - Week Near Annual Min,Extreme,1/15,1/21
GROUND TEMPERATURES,3,.5,,,,24.15,23.87,23.79,23.85,24.24,24.67,25.08,25.38,25.46,25.32,24.99,24.57,2,,,,24.41,24.14,24.01,24.01,24.21,24.51,24.83,25.10,25.24,25.22,25.03,24.74,4,,,,24.58,24.37,24.24,24.20,24.28,24.45,24.66,24.87,25.02,25.05,24.97,24.80
HOLIDAYS/DAYLIGHT SAVINGS,No,0,0,0
COMMENTS 1,"NCEI ISD/ERA5 - #years=[15] Period of Record=2011-2025; Jan=2019; Feb=2018; Mar=2025; Apr=2021; May=2015; Jun=2016; Jul=2016; Aug=2020; Sep=2014; Oct=2024; Nov=2012; Dec=2020"
COMMENTS 2,"Downloaded from Climate.Onebuilding.org -- Ground temps represent undisturbed earth temperatures - calculated from this weather data."
DATA PERIODS,1,60,Data,Wednesday,1/ 1,1/ 1
1997,1,1,1,1,?9?9?9?9E0?9?9?9*9*9?9?9?9?9?9?9*9?9*9*9?9*9,32.37,23.19,71.3,0,0,0,0,0,0.5,0,0,9999,9999,9,999999999,0,0.0,0,0,0.0,0.0
1997,1,1,1,2,?9?9?9?9E0?9?9?9*9*9?9?9?9?9?9?9*9?9*9*9?9*9,32.37,23.19,71.3,0,0,0,0,0,0.5,0,0,9999,9999,9,999999999,0,0.0,0,0,0.0,0.0
1997,1,1,1,3,?9?9?9?9E0?9?9?9*9*9?9?9?9?9?9?9*9?9*9*9?9*9,32.42,23.19,71.3,0,0,0,0,0,0.5,0,0,9999,9999,9,999999999,0,0.0,0,0,0.0,0.0
1997,1,1,1,4,?9?9?9?9E0?9?9?9*9*9?9?9?9?9?9?9*9?9*9*9?9*9,32.48,23.19,71.3,0,0,0,0,0,0.5,0,0,9999,9999,9,999999999,0,0.0,0,0,0.0,0.0
1997,1,1,1,5,?9?9?9?9E0?9?9?9*9*9?9?9?9?9?9?9*9?9*9*9?9*9,32.42,23.19,71.3,0,0,0,0,0,0.5,0,0,9999,9999,9,999999999,0,0.0,0,0,0.0,0.0
1997,1,1,1,6,?9?9?9?9E0?9?9?9*9*9?9?9?9?9?9?9*9?9*9*9?9*9,32.40,23.19,71.3,0,0,0,0,0,0.5,0,0,9999,9999,9,999999999,0,0.0,0,0,0.0,0.0
1997,1,1,1,7,?9?9?9?9E0?9?9?9*9*9?9?9?9?9?9?9*9?9*9*9?9*9,32.33,23.19,71.3,0,0,0,0,0,0.5,0,0,9999,9999,9,999999999,0,0.0,0,0,0.0,0.0
1997,1,1,1,8,?9?9?9?9E0?9?9?9*9*9?9?9?9?9?9?9*9?9*9*9?9*9,32.20,23.19,71.3,0,0,0,0,0,0.5,0,0,9999,9999,9,999999999,0,0.0,0,0,0.0,0.0
1997,1,1,1,9,?9?9?9?9E0?9?9?9*9*9?9?9?9?9?9?9*9?9*9*9?9*9,32.08,23.19,71.3,0,0,0,0,0,0.5,0,0,9999,9999,9,999999999,0,0.0,0,0,0.0,0.0
1997,1,1,1,10,?9?9?9?9E0?9?9?9*9*9?9?9?9?9?9?9*9?9*9*9?9*9,32.11,23.19,71.3,0,0,0,0,0,0.5,0,0,9999,9999,9,999999999,0,0.0,0,0,0.0,0.0
1997,1,1,1,11,?9?9?9?9E0?9?9?9*9*9?9?9?9?9?9?9*9?9*9*9?9*9,32.16,23.19,71.3,0,0,0,0,0,0.5,0,0,9999,9999,9,999999999,0,0.0,0,0,0.0,0.0
1997,1,1,1,12,?9?9?9?9E0?9?9?9*9*9?9?9?9?9?9?9*9?9*9*9?9*9,32.30,23.19,71.3,0,0,0,0,0,0.5,0,0,9999,9999,9,999999999,0,0.0,0,0,0.0,0.0
1997,1,1,1,13,?9?9?9?9E0?9?9?9*9*9?9?9?9?9?9?9*9?9*9*9?9*9,32.32,23.19,71.3,0,0,0,0,0,0.5,0,0,9999,9999,9,999999999,0,0.0,0,0,0.0,0.0
1997,1,1,1,14,?9?9?9?9E0?9?9?9*9*9?9?9?9?9?9?9*9?9*9*9?9*9,32.52,23.19,71.3,0,0,0,0,0,0.5,0,0,9999,9999,9,999999999,0,0.0,0,0,0.0,0.0
1997,1,1,1,15,?9?9?9?9E0?9?9?9*9*9?9?9?9?9?9?9*9?9*9*9?9*9,32.63,23.19,71.3,0,0,0,0,0,0.5,0,0,9999,9999,9,999999999,0,0.0,0,0,0.0,0.0
1997,1,1,1,16,?9?9?9?9E0?9?9?9*9*9?9?9?9?9?9?9*9?9*9*9?9*9,32.64,23.19,71.3,0,0,0,0,0,0.5,0,0,9999,9999,9,999999999,0,0.0,0,0,0.0,0.0
1997,1,1,1,17,?9?9?9?9E0?9?9?9*9*9?9?9?9?9?9?9*9?9*9*9?9*9,32.59,23.19,71.3,0,0,0,0,0,0.5,0,0,9999,9999,9,999999999,0,0.0,0,0,0.0,0.0
1997,1,1,1,18,?9?9?9?9E0?9?9?9*9*9?9?9?9?9?9?9*9?9*9*9?9*9,33.79,23.19,71.3,0,0,0,0,0,0.5,0,0,9999,9999,9,999999999,0,0.0,0,0,0.0,0.0
1997,1,1,1,19,?9?9?9?9E0?9?9?9*9*9?9?9?9?9?9?9*9?9*9*9?9*9,33.74,23.19,71.3,0,0,0,0,0,0.5,0,0,9999,9999,9,999999999,0,0.0,0,0,0.0,0.0
1997,1,1,1,20,?9?9?9?9E0?9?9?9*9*9?9?9?9?9?9?9*9?9*9*9?9*9,33.80,23.19,71.3,0,0,0,0,0,0.5,0,0,9999,9999,9,999999999,0,0.0,0,0,0.0,0.0
1997,1,1,1,21,?9?9?9?9E0?9?9?9*9*9?9?9?9?9?9?9*9?9*9*9?9*9,33.80,23.19,71.3,0,0,0,0,0,0.5,0,0,9999,9999,9,999999999,0,0.0,0,0,0.0,0.0
1997,1,1,1,22,?9?9?9?9E0?9?9?9*9*9?9?9?9?9?9?9*9?9*9*9?9*9,33.79,23.19,71.3,0,0,0,0,0,0.5,0,0,9999,9999,9,999999999,0,0.0,0,0,0.0,0.0
1997,1,1,1,23,?9?9?9?9E0?9?9?9*9*9?9?9?9?9?9?9*9?9*9*9?9*9,33.82,23.19,71.3,0,0,0,0,0,0.5,0,0,9999,9999,9,999999999,0,0.0,0,0,0.0,0.0
1997,1,1,1,24,?9?9?9?9E0?9?9?9*9*9?9?9?9?9?9?9*9?9*9*9?9*9,33.74,23.19,71.3,0,0,0,0,0,0.5,0,0,9999,9999,9,999999999,0,0.0,0,0,0.0,0.0
1997,1,1,1,25,?9?9?9?9E0?9?9?9*9*9?9?9?9?9?9?9*9?9*9*9?9*9,33.78,23.19,71.3,0,0,0,0,0,0.5,0,0,9999,9999,9,999999999,0,0.0,0,0,0.0,0.0
1997,1,1,1,26,?9?9?9?9E0?9?9?9*9*9?9?9?9?9?9?9*9?9*9*9?9*9,33.75,23.19,71.3,0,0,0,0,0,0.5,0,0,9999,9999,9,999999999,0,0.0,0,0,0.0,0.0
1997,1,1,1,27,?9?9?9?9E0?9?9?9*9*9?9?9?9?9?9?9*9?9*9*9?9*9,33.77,23.19,71.3,0,0,0,0,0,0.5,0,0,9999,9999,9,999999999,0,0.0,0,0,0.0,0.0
1997,1,1,1,28,?9?9?9?9E0?9?9?9*9*9?9?9?9?9?9?9*9?9*9*9?9*9,33.76,23.19,71.3,0,0,0,0,0,0.5,0,0,9999,9999,9,999999999,0,0.0,0,0,0.0,0.0
1997,1,1,1,29,?9?9?9?9E0?9?9?9*9*9?9?9?9?9?9?9*9?9*9*9?9*9,33.83,23.19,71.3,0,0,0,0,0,0.5,0,0,9999,9999,9,999999999,0,0.0,0,0,0.0,0.0
1997,1,1,1,30,?9?9?9?9E0?9?9?9*9*9?9?9?9?9?9?9*9?9*9*9?9*9,33.80,23.19,71.3,0,0,0,0,0,0.5,0,0,9999,9999,9,999999999,0,0.0,0,0,0.0,0.0
1997,1,1,1,31,?9?9?9?9E0?9?9?9*9*9?9?9?9?9?9?9*9?9*9*9?9*9,33.81,23.19,71.3,0,0,0,0,0,0.5,0,0,9999,9999,9,999999999,0,0.0,0,0,0.0,0.0
1997,1,1,1,32,?9?9?9?9E0?9?9?9*9*9?9?9?9?9?9?9*9?9*9*9?9*9,33.87,23.19,71.3,0,0,0,0,0,0.5,0,0,9999,9999,9,999999999,0,0.0,0,0,0.0,0.0
1997,1,1,1,33,?9?9?9?9E0?9?9?9*9*9?9?9?9?9?9?9*9?9*9*9?9*9,33.89,23.19,71.3,0,0,0,0,0,0.5,0,0,9999,9999,9,999999999,0,0.0,0,0,0.0,0.0
1997,1,1,1,34,?9?9?9?9E0?9?9?9*9*9?9?9?9?9?9?9*9?9*9*9?9*9,33.30,23.19,71.3,0,0,0,0,0,0.5,0,0,9999,9999,9,999999999,0,0.0,0,0,0.0,0.0
1997,1,1,1,35,?9?9?9?9E0?9?9?9*9*9?9?9?9?9?9?9*9?9*9*9?9*9,32.82,23.19,71.3,0,0,0,0,0,0.5,0,0,9999,9999,9,999999999,0,0.0,0,0,0.0,0.0
1997,1,1,1,36,?9?9?9?9E0?9?9?9*9*9?9?9?9?9?9?9*9?9*9*9?9*9,32.71,23.19,71.3,0,0,0,0,0,0.5,0,0,9999,9999,9,999999999,0,0.0,0,0,0.0,0.0
1997,1,1,1,37,?9?9?9?9E0?9?9?9*9*9?9?9?9?9?9?9*9?9*9*9?9*9,32.70,23.19,71.3,0,0,0,0,0,0.5,0,0,9999,9999,9,999999999,0,0.0,0,0,0.0,0.0
1997,1,1,1,38,?9?9?9?9E0?9?9?9*9*9?9?9?9?9?9?9*9?9*9*9?9*9,32.78,23.19,71.3,0,0,0,0,0,0.5,0,0,9999,9999,9,999999999,0,0.0,0,0,0.0,0.0
1997,1,1,1,39,?9?9?9?9E0?9?9?9*9*9?9?9?9?9?9?9*9?9*9*9?9*9,32.67,23.19,71.3,0,0,0,0,0,0.5,0,0,9999,9999,9,999999999,0,0.0,0,0,0.0,0.0
1997,1,1,1,40,?9?9?9?9E0?9?9?9*9*9?9?9?9?9?9?9*9?9*9*9?9*9,32.60,23.19,71.3,0,0,0,0,0,0.5,0,0,9999,9999,9,999999999,0,0.0,0,0,0.0,0.0
1997,1,1,1,41,?9?9?9?9E0?9?9?9*9*9?9?9?9?9?9?9*9?9*9*9?9*9,32.73,23.19,71.3,0,0,0,0,0,0.5,0,0,9999,9999,9,999999999,0,0.0,0,0,0.0,0.0
1997,1,1,1,42,?9?9?9?9E0?9?9?9*9*9?9?9?9?9?9?9*9?9*9*9?9*9,32.72,23.19,71.3,0,0,0,0,0,0.5,0,0,9999,9999,9,999999999,0,0.0,0,0,0.0,0.0
1997,1,1,1,43,?9?9?9?9E0?9?9?9*9*9?9?9?9?9?9?9*9?9*9*9?9*9,32.53,23.19,71.3,0,0,0,0,0,0.5,0,0,9999,9999,9,999999999,0,0.0,0,0,0.0,0.0
1997,1,1,1,44,?9?9?9?9E0?9?9?9*9*9?9?9?9?9?9?9*9?9*9*9?9*9,32.63,23.19,71.3,0,0,0,0,0,0.5,0,0,9999,9999,9,999999999,0,0.0,0,0,0.0,0.0
1997,1,1,1,45,?9?9?9?9E0?9?9?9*9*9?9?9?9?9?9?9*9?9*9*9?9*9,32.74,23.19,71.3,0,0,0,0,0,0.5,0,0,9999,9999,9,999999999,0,0.0,0,0,0.0,0.0
1997,1,1,1,46,?9?9?9?9E0?9?9?9*9*9?9?9?9?9?9?9*9?9*9*9?9*9,32.73,23.19,71.3,0,0,0,0,0,0.5,0,0,9999,9999,9,999999999,0,0.0,0,0,0.0,0.0
1997,1,1,1,47,?9?9?9?9E0?9?9?9*9*9?9?9?9?9?9?9*9?9*9*9?9*9,32.63,23.19,71.3,0,0,0,0,0,0.5,0,0,9999,9999,9,999999999,0,0.0,0,0,0.0,0.0
1997,1,1,1,48,?9?9?9?9E0?9?9?9*9*9?9?9?9?9?9?9*9?9*9*9?9*9,32.52,23.19,71.3,0,0,0,0,0,0.5,0,0,9999,9999,9,999999999,0,0.0,0,0,0.0,0.0
1997,1,1,1,49,?9?9?9?9E0?9?9?9*9*9?9?9?9?9?9?9*9?9*9*9?9*9,32.69,23.19,71.3,0,0,0,0,0,0.5,0,0,9999,9999,9,999999999,0,0.0,0,0,0.0,0.0
1997,1,1,1,50,?9?9?9?9E0?9?9?9*9*9?9?9?9?9?9?9*9?9*9*9?9*9,32.63,23.19,71.3,0,0,0,0,0,0.5,0,0,9999,9999,9,999999999,0,0.0,0,0,0.0,0.0
1997,1,1,1,51,?9?9?9?9E0?9?9?9*9*9?9?9?9?9?9?9*9?9*9*9?9*9,30.73,23.19,71.3,0,0,0,0,0,0.5,0,0,9999,9999,9,999999999,0,0.0,0,0,0.0,0.0
1997,1,1,1,52,?9?9?9?9E0?9?9?9*9*9?9?9?9?9?9?9*9?9*9*9?9*9,29.71,23.19,71.3,0,0,0,0,0,0.5,0,0,9999,9999,9,999999999,0,0.0,0,0,0.0,0.0
1997,1,1,1,53,?9?9?9?9E0?9?9?9*9*9?9?9?9?9?9?9*9?9*9*9?9*9,29.74,23.19,71.3,0,0,0,0,0,0.5,0,0,9999,9999,9,999999999,0,0.0,0,0,0.0,0.0
1997,1,1,1,54,?9?9?9?9E0?9?9?9*9*9?9?9?9?9?9?9*9?9*9*9?9*9,29.80,23.19,71.3,0,0,0,0,0,0.5,0,0,9999,9999,9,999999999,0,0.0,0,0,0.0,0.0
1997,1,1,1,55,?9?9?9?9E0?9?9?9*9*9?9?9?9?9?9?9*9?9*9*9?9*9,29.86,23.19,71.3,0,0,0,0,0,0.5,0,0,9999,9999,9,999999999,0,0.0,0,0,0.0,0.0
1997,1,1,1,56,?9?9?9?9E0?9?9?9*9*9?9?9?9?9?9?9*9?9*9*9?9*9,29.86,23.19,71.3,0,0,0,0,0,0.5,0,0,9999,9999,9,999999999,0,0.0,0,0,0.0,0.0
1997,1,1,1,57,?9?9?9?9E0?9?9?9*9*9?9?9?9?9?9?9*9?9*9*9?9*9,30.06,23.19,71.3,0,0,0,0,0,0.5,0,0,9999,9999,9,999999999,0,0.0,0,0,0.0,0.0
1997,1,1,1,58,?9?9?9?9E0?9?9?9*9*9?9?9?9?9?9?9*9?9*9*9?9*9,30.12,23.19,71.3,0,0,0,0,0,0.5,0,0,9999,9999,9,999999999,0,0.0,0,0,0.0,0.0
1997,1,1,1,59,?9?9?9?9E0?9?9?9*9*9?9?9?9?9?9?9*9?9*9*9?9*9,30.23,23.19,71.3,0,0,0,0,0,0.5,0,0,9999,9999,9,999999999,0,0.0,0,0,0.0,0.0
1997,1,1,1,60,?9?9?9?9E0?9?9?9*9*9?9?9?9?9?9?9*9?9*9*9?9*9,30.37,23.19,71.3,0,0,0,0,0,0.5,0,0,9999,9999,9,999999999,0,0.0,0,0,0.0,0.0
1997,1,1,2,1,?9?9?9?9E0?9?9?9*9*9?9?9?9?9?9?9*9?9*9*9?9*9,30.38,23.19,71.3,0,0,0,0,0,0.5,0,0,9999,9999,9,999999999,0,0.0,0,0,0.0,0.0
1997,1,1,2,2,?9?9?9?9E0?9?9?9*9*9?9?9?9?9?9?9*9?9*9*9?9*9,30.41,23.19,71.3,0,0,0,0,0,0.5,0,0,9999,9999,9,999999999,0,0.0,0,0,0.0,0.0
1997,1,1,2,3,?9?9?9?9E0?9?9?9*9*9?9?9?9?9?9?9*9?9*9*9?9*9,30.31,23.19,71.3,0,0,0,0,0,0.5,0,0,9999,9999,9,999999999,0,0.0,0,0,0.0,0.0
1997,1,1,2,4,?9?9?9?9E0?9?9?9*9*9?9?9?9?9?9?9*9?9*9*9?9*9,30.35,23.19,71.3,0,0,0,0,0,0.5,0,0,9999,9999,9,999999999,0,0.0,0,0,0.0,0.0
1997,1,1,2,5,?9?9?9?9E0?9?9?9*9*9?9?9?9?9?9?9*9?9*9*9?9*9,30.65,23.19,71.3,0,0,0,0,0,0.5,0,0,9999,9999,9,999999999,0,0.0,0,0,0.0,0.0
1997,1,1,2,6,?9?9?9?9E0?9?9?9*9*9?9?9?9?9?9?9*9?9*9*9?9*9,32.97,23.19,71.3,0,0,0,0,0,0.5,0,0,9999,9999,9,999999999,0,0.0,0,0,0.0,0.0
1997,1,1,2,7,?9?9?9?9E0?9?9?9*9*9?9?9?9?9?9?9*9?9*9*9?9*9,32.87,23.19,71.3,0,0,0,0,0,0.5,0,0,9999,9999,9,999999999,0,0.0,0,0,0.0,0.0
1997,1,1,2,8,?9?9?9?9E0?9?9?9*9*9?9?9?9?9?9?9*9?9*9*9?9*9,32.85,23.19,71.3,0,0,0,0,0,0.5,0,0,9999,9999,9,999999999,0,0.0,0,0,0.0,0.0
1997,1,1,2,9,?9?9?9?9E0?9?9?9*9*9?9?9?9?9?9?9*9?9*9*9?9*9,32.89,23.19,71.3,0,0,0,0,0,0.5,0,0,9999,9999,9,999999999,0,0.0,0,0,0.0,0.0
1997,1,1,2,10,?9?9?9?9E0?9?9?9*9*9?9?9?9?9?9?9*9?9*9*9?9*9,33.05,23.19,71.3,0,0,0,0,0,0.5,0,0,9999,9999,9,999999999,0,0.0,0,0,0.0,0.0
1997,1,1,2,11,?9?9?9?9E0?9?9?9*9*9?9?9?9?9?9?9*9?9*9*9?9*9,33.03,23.19,71.3,0,0,0,0,0,0.5,0,0,9999,9999,9,999999999,0,0.0,0,0,0.0,0.0
1997,1,1,2,12,?9?9?9?9E0?9?9?9*9*9?9?9?9?9?9?9*9?9*9*9?9*9,33.06,23.19,71.3,0,0,0,0,0,0.5,0,0,9999,9999,9,999999999,0,0.0,0,0,0.0,0.0
1997,1,1,2,13,?9?9?9?9E0?9?9?9*9*9?9?9?9?9?9?9*9?9*9*9?9*9,33.08,23.19,71.3,0,0,0,0,0,0.5,0,0,9999,9999,9,999999999,0,0.0,0,0,0.0,0.0
1997,1,1,2,14,?9?9?9?9E0?9?9?9*9*9?9?9?9?9?9?9*9?9*9*9?9*9,33.12,23.19,71.3,0,0,0,0,0,0.5,0,0,9999,9999,9,999999999,0,0.0,0,0,0.0,0.0
1997,1,1,2,15,?9?9?9?9E0?9?9?9*9*9?9?9?9?9?9?9*9?9*9*9?9*9,33.14,23.19,71.3,0,0,0,0,0,0.5,0,0,9999,9999,9,999999999,0,0.0,0,0,0.0,0.0
1997,1,1,2,16,?9?9?9?9E0?9?9?9*9*9?9?9?9?9?9?9*9?9*9*9?9*9,33.18,23.19,71.3,0,0,0,0,0,0.5,0,0,9999,9999,9,999999999,0,0.0,0,0,0.0,0.0
1997,1,1,2,17,?9?9?9?9E0?9?9?9*9*9?9?9?9?9?9?9*9?9*9*9?9*9,33.23,23.19,71.3,0,0,0,0,0,0.5,0,0,9999,9999,9,999999999,0,0.0,0,0,0.0,0.0
1997,1,1,2,18,?9?9?9?9E0?9?9?9*9*9?9?9?9?9?9?9*9?9*9*9?9*9,33.24,23.19,71.3,0,0,0,0,0,0.5,0,0,9999,9999,9,999999999,0,0.0,0,0,0.0,0.0
1997,1,1,2,19,?9?9?9?9E0?9?9?9*9*9?9?9?9?9?9?9*9?9*9*9?9*9,33.08,23.19,71.3,0,0,0,0,0,0.5,0,0,9999,9999,9,999999999,0,0.0,0,0,0.0,0.0
1997,1,1,2,20,?9?9?9?9E0?9?9?9*9*9?9?9?9?9?9?9*9?9*9*9?9*9,32.87,23.19,71.3,0,0,0,0,0,0.5,0,0,9999,9999,9,999999999,0,0.0,0,0,0.0,0.0
1997,1,1,2,21,?9?9?9?9E0?9?9?9*9*9?9?9?9?9?9?9*9?9*9*9?9*9,32.66,23.19,71.3,0,0,0,0,0,0.5,0,0,9999,9999,9,999999999,0,0.0,0,0,0.0,0.0
1997,1,1,2,22,?9?9?9?9E0?9?9?9*9*9?9?9?9?9?9?9*9?9*9*9?9*9,32.68,23.19,71.3,0,0,0,0,0,0.5,0,0,9999,9999,9,999999999,0,0.0,0,0,0.0,0.0
1997,1,1,2,23,?9?9?9?9E0?9?9?9*9*9?9?9?9?9?9?9*9?9*9*9?9*9,32.63,23.19,71.3,0,0,0,0,0,0.5,0,0,9999,9999,9,999999999,0,0.0,0,0,0.0,0.0
1997,1,1,2,24,?9?9?9?9E0?9?9?9*9*9?9?9?9?9?9?9*9?9*9*9?9*9,32.71,23.19,71.3,0,0,0,0,0,0.5,0,0,9999,9999,9,999999999,0,0.0,0,0,0.0,0.0
1997,1,1,2,25,?9?9?9?9E0?9?9?9*9*9?9?9?9?9?9?9*9?9*9*9?9*9,32.45,23.19,71.3,0,0,0,0,0,0.5,0,0,9999,9999,9,999999999,0,0.0,0,0,0.0,0.0
1997,1,1,2,26,?9?9?9?9E0?9?9?9*9*9?9?9?9?9?9?9*9?9*9*9?9*9,32.55,23.19,71.3,0,0,0,0,0,0.5,0,0,9999,9999,9,999999999,0,0.0,0,0,0.0,0.0
1997,1,1,2,27,?9?9?9?9E0?9?9?9*9*9?9?9?9?9?9?9*9?9*9*9?9*9,32.70,23.19,71.3,0,0,0,0,0,0.5,0,0,9999,9999,9,999999999,0,0.0,0,0,0.0,0.0
1997,1,1,2,28,?9?9?9?9E0?9?9?9*9*9?9?9?9?9?9?9*9?9*9*9?9*9,32.71,23.19,71.3,0,0,0,0,0,0.5,0,0,9999,9999,9,999999999,0,0.0,0,0,0.0,0.0
1997,1,1,2,29,?9?9?9?9E0?9?9?9*9*9?9?9?9?9?9?9*9?9*9*9?9*9,32.72,23.19,71.3,0,0,0,0,0,0.5,0,0,9999,9999,9,999999999,0,0.0,0,0,0.0,0.0
1997,1,1,2,30,?9?9?9?9E0?9?9?9*9*9?9?9?9?9?9?9*9?9*9*9?9*9,32.71,23.19,71.3,0,0,0,0,0,0.5,0,0,9999,9999,9,999999999,0,0.0,0,0,0.0,0.0
1997,1,1,2,31,?9?9?9?9E0?9?9?9*9*9?9?9?9?9?9?9*9?9*9*9?9*9,32.65,23.19,71.3,0,0,0,0,0,0.5,0,0,9999,9999,9,999999999,0,0.0,0,0,0.0,0.0
1997,1,1,2,32,?9?9?9?9E0?9?9?9*9*9?9?9?9?9?9?9*9?9*9*9?9*9,32.79,23.19,71.3,0,0,0,0,0,0.5,0,0,9999,9999,9,999999999,0,0.0,0,0,0.0,0.0
1997,1,1,2,33,?9?9?9?9E0?9?9?9*9*9?9?9?9?9?9?9*9?9*9*9?9*9,32.76,23.19,71.3,0,0,0,0,0,0.5,0,0,9999,9999,9,999999999,0,0.0,0,0,0.0,0.0
1997,1,1,2,34,?9?9?9?9E0?9?9?9*9*9?9?9?9?9?9?9*9?9*9*9?9*9,32.54,23.19,71.3,0,0,0,0,0,0.5,0,0,9999,9999,9,999999999,0,0.0,0,0,0.0,0.0
1997,1,1,2,35,?9?9?9?9E0?9?9?9*9*9?9?9?9?9?9?9*9?9*9*9?9*9,32.58,23.19,71.3,0,0,0,0,0,0.5,0,0,9999,9999,9,999999999,0,0.0,0,0,0.0,0.0
1997,1,1,2,36,?9?9?9?9E0?9?9?9*9*9?9?9?9?9?9?9*9?9*9*9?9*9,32.56,23.19,71.3,0,0,0,0,0,0.5,0,0,9999,9999,9,999999999,0,0.0,0,0,0.0,0.0
1997,1,1,2,37,?9?9?9?9E0?9?9?9*9*9?9?9?9?9?9?9*9?9*9*9?9*9,31.46,23.19,71.3,0,0,0,0,0,0.5,0,0,9999,9999,9,999999999,0,0.0,0,0,0.0,0.0
1997,1,1,2,38,?9?9?9?9E0?9?9?9*9*9?9?9?9?9?9?9*9?9*9*9?9*9,31.43,23.19,71.3,0,0,0,0,0,0.5,0,0,9999,9999,9,999999999,0,0.0,0,0,0.0,0.0
1997,1,1,2,39,?9?9?9?9E0?9?9?9*9*9?9?9?9?9?9?9*9?9*9*9?9*9,31.41,23.19,71.3,0,0,0,0,0,0.5,0,0,9999,9999,9,999999999,0,0.0,0,0,0.0,0.0
1997,1,1,2,40,?9?9?9?9E0?9?9?9*9*9?9?9?9?9?9?9*9?9*9*9?9*9,31.49,23.19,71.3,0,0,0,0,0,0.5,0,0,9999,9999,9,999999999,0,0.0,0,0,0.0,0.0
1997,1,1,2,41,?9?9?9?9E0?9?9?9*9*9?9?9?9?9?9?9*9?9*9*9?9*9,31.48,23.19,71.3,0,0,0,0,0,0.5,0,0,9999,9999,9,999999999,0,0.0,0,0,0.0,0.0
1997,1,1,2,42,?9?9?9?9E0?9?9?9*9*9?9?9?9?9?9?9*9?9*9*9?9*9,31.45,23.19,71.3,0,0,0,0,0,0.5,0,0,9999,9999,9,999999999,0,0.0,0,0,0.0,0.0
1997,1,1,2,43,?9?9?9?9E0?9?9?9*9*9?9?9?9?9?9?9*9?9*9*9?9*9,31.21,23.19,71.3,0,0,0,0,0,0.5,0,0,9999,9999,9,999999999,0,0.0,0,0,0.0,0.0
1997,1,1,2,44,?9?9?9?9E0?9?9?9*9*9?9?9?9?9?9?9*9?9*9*9?9*9,30.92,23.19,71.3,0,0,0,0,0,0.5,0,0,9999,9999,9,999999999,0,0.0,0,0,0.0,0.0
1997,1,1,2,45,?9?9?9?9E0?9?9?9*9*9?9?9?9?9?9?9*9?9*9*9?9*9,32.50,23.19,71.3,0,0,0,0,0,0.5,0,0,9999,9999,9,999999999,0,0.0,0,0,0.0,0.0
1997,1,1,2,46,?9?9?9?9E0?9?9?9*9*9?9?9?9?9?9?9*9?9*9*9?9*9,33.43,23.19,71.3,0,0,0,0,0,0.5,0,0,9999,9999,9,999999999,0,0.0,0,0,0.0,0.0
1997,1,1,2,47,?9?9?9?9E0?9?9?9*9*9?9?9?9?9?9?9*9?9*9*9?9*9,33.56,23.19,71.3,0,0,0,0,0,0.5,0,0,9999,9999,9,999999999,0,0.0,0,0,0.0,0.0
1997,1,1,2,48,?9?9?9?9E0?9?9?9*9*9?9?9?9?9?9?9*9?9*9*9?9*9,33.67,23.19,71.3,0,0,0,0,0,0.5,0,0,9999,9999,9,999999999,0,0.0,0,0,0.0,0.0
1997,1,1,2,49,?9?9?9?9E0?9?9?9*9*9?9?9?9?9?9?9*9?9*9*9?9*9,33.72,23.19,71.3,0,0,0,0,0,0.5,0,0,9999,9999,9,999999999,0,0.0,0,0,0.0,0.0
1997,1,1,2,50,?9?9?9?9E0?9?9?9*9*9?9?9?9?9?9?9*9?9*9*9?9*9,33.71,23.19,71.3,0,0,0,0,0,0.5,0,0,9999,9999,9,999999999,0,0.0,0,0,0.0,0.0
1997,1,1,2,51,?9?9?9?9E0?9?9?9*9*9?9?9?9?9?9?9*9?9*9*9?9*9,33.68,23.19,71.3,0,0,0,0,0,0.5,0,0,9999,9999,9,999999999,0,0.0,0,0,0.0,0.0
1997,1,1,2,52,?9?9?9?9E0?9?9?9*9*9?9?9?9?9?9?9*9?9*9*9?9*9,33.72,23.19,71.3,0,0,0,0,0,0.5,0,0,9999,9999,9,999999999,0,0.0,0,0,0.0,0.0
1997,1,1,2,53,?9?9?9?9E0?9?9?9*9*9?9?9?9?9?9?9*9?9*9*9?9*9,33.70,23.19,71.3,0,0,0,0,0,0.5,0,0,9999,9999,9,999999999,0,0.0,0,0,0.0,0.0
1997,1,1,2,54,?9?9?9?9E0?9?9?9*9*9?9?9?9?9?9?9*9?9*9*9?9*9,33.76,23.19,71.3,0,0,0,0,0,0.5,0,0,9999,9999,9,999999999,0,0.0,0,0,0.0,0.0
1997,1,1,2,55,?9?9?9?9E0?9?9?9*9*9?9?9?9?9?9?9*9?9*9*9?9*9,33.78,23.19,71.3,0,0,0,0,0,0.5,0,0,9999,9999,9,999999999,0,0.0,0,0,0.0,0.0
1997,1,1,2,56,?9?9?9?9E0?9?9?9*9*9?9?9?9?9?9?9*9?9*9*9?9*9,33.74,23.19,71.3,0,0,0,0,0,0.5,0,0,9999,9999,9,999999999,0,0.0,0,0,0.0,0.0
1997,1,1,2,57,?9?9?9?9E0?9?9?9*9*9?9?9?9?9?9?9*9?9*9*9?9*9,33.72,23.19,71.3,0,0,0,0,0,0.5,0,0,9999,9999,9,999999999,0,0.0,0,0,0.0,0.0
1997,1,1,2,58,?9?9?9?9E0?9?9?9*9*9?9?9?9?9?9?9*9?9*9*9?9*9,33.71,23.19,71.3,0,0,0,0,0,0.5,0,0,9999,9999,9,999999999,0,0.0,0,0,0.0,0.0
1997,1,1,2,59,?9?9?9?9E0?9?9?9*9*9?9?9?9?9?9?9*9?9*9*9?9*9,33.77,23.19,71.3,0,0,0,0,0,0.5,0,0,9999,9999,9,999999999,0,0.0,0,0,0.0,0.0
1997,1,1,2,60,?9?9?9?9E0?9?9?9*9*9?9?9?9?9?9?9*9?9*9*9?9*9,33.80,23.19,71.3,0,0,0,0,0,0.5,0,0,9999,9999,9,999999999,0,0.0,0,0,0.0,0.0
1997,1,1,3,1,?9?9?9?9E0?9?9?9*9*9?9?9?9?9?9?9*9?9*9*9?9*9,33.78,23.19,71.3,0,0,0,0,0,0.5,0,0,9999,9999,9,999999999,0,0.0,0,0,0.0,0.0
1997,1,1,3,2,?9?9?9?9E0?9?9?9*9*9?9?9?9?9?9?9*9?9*9*9?9*9,32.71,23.19,71.3,0,0,0,0,0,0.5,0,0,9999,9999,9,999999999,0,0.0,0,0,0.0,0.0
1997,1,1,3,3,?9?9?9?9E0?9?9?9*9*9?9?9?9?9?9?9*9?9*9*9?9*9,32.56,23.19,71.3,0,0,0,0,0,0.5,0,0,9999,9999,9,999999999,0,0.0,0,0,0.0,0.0
1997,1,1,3,4,?9?9?9?9E0?9?9?9*9*9?9?9?9?9?9?9*9?9*9*9?9*9,32.50,23.19,71.3,0,0,0,0,0,0.5,0,0,9999,9999,9,999999999,0,0.0,0,0,0.0,0.0
1997,1,1,3,5,?9?9?9?9E0?9?9?9*9*9?9?9?9?9?9?9*9?9*9*9?9*9,32.55,23.19,71.3,0,0,0,0,0,0.5,0,0,9999,9999,9,999999999,0,0.0,0,0,0.0,0.0
1997,1,1,3,6,?9?9?9?9E0?9?9?9*9*9?9?9?9?9?9?9*9?9*9*9?9*9,32.64,23.19,71.3,0,0,0,0,0,0.5,0,0,9999,9999,9,999999999,0,0.0,0,0,0.0,0.0
1997,1,1,3,7,?9?9?9?9E0?9?9?9*9*9?9?9?9?9?9?9*9?9*9*9?9*9,32.68,23.19,71.3,0,0,0,0,0,0.5,0,0,9999,9999,9,999999999,0,0.0,0,0,0.0,0.0
1997,1,1,3,8,?9?9?9?9E0?9?9?9*9*9?9?9?9?9?9?9*9?9*9*9?9*9,32.63,23.19,71.3,0,0,0,0,0,0.5,0,0,9999,9999,9,999999999,0,0.0,0,0,0.0,0.0
1997,1,1,3,9,?9?9?9?9E0?9?9?9*9*9?9?9?9?9?9?9*9?9*9*9?9*9,32.60,23.19,71.3,0,0,0,0,0,0.5,0,0,9999,9999,9,999999999,0,0.0,0,0,0.0,0.0
1997,1,1,3,10,?9?9?9?9E0?9?9?9*9*9?9?9?9?9?9?9*9?9*9*9?9*9,32.37,23.19,71.3,0,0,0,0,0,0.5,0,0,9999,9999,9,999999999,0,0.0,0,0,0.0,0.0
1997,1,1,3,11,?9?9?9?9E0?9?9?9*9*9?9?9?9?9?9?9*9?9*9*9?9*9,32.58,23.19,71.3,0,0,0,0,0,0.5,0,0,9999,9999,9,999999999,0,0.0,0,0,0.0,0.0
1997,1,1,3,12,?9?9?9?9E0?9?9?9*9*9?9?9?9?9?9?9*9?9*9*9?9*9,32.79,23.19,71.3,0,0,0,0,0,0.5,0,0,9999,9999,9,999999999,0,0.0,0,0,0.0,0.0
1997,1,1,3,13,?9?9?9?9E0?9?9?9*9*9?9?9?9?9?9?9*9?9*9*9?9*9,32.72,23.19,71.3,0,0,0,0,0,0.5,0,0,9999,9999,9,999999999,0,0.0,0,0,0.0,0.0
1997,1,1,3,14,?9?9?9?9E0?9?9?9*9*9?9?9?9?9?9?9*9?9*9*9?9*9,32.80,23.19,71.3,0,0,0,0,0,0.5,0,0,9999,9999,9,999999999,0,0.0,0,0,0.0,0.0
1997,1,1,3,15,?9?9?9?9E0?9?9?9*9*9?9?9?9?9?9?9*9?9*9*9?9*9,32.82,23.19,71.3,0,0,0,0,0,0.5,0,0,9999,9999,9,999999999,0,0.0,0,0,0.0,0.0
1997,1,1,3,16,?9?9?9?9E0?9?9?9*9*9?9?9?9?9?9?9*9?9*9*9?9*9,32.89,23.19,71.3,0,0,0,0,0,0.5,0,0,9999,9999,9,999999999,0,0.0,0,0,0.0,0.0
1997,1,1,3,17,?9?9?9?9E0?9?9?9*9*9?9?9?9?9?9?9*9?9*9*9?9*9,32.81,23.19,71.3,0,0,0,0,0,0.5,0,0,9999,9999,9,999999999,0,0.0,0,0,0.0,0.0
1997,1,1,3,18,?9?9?9?9E0?9?9?9*9*9?9?9?9?9?9?9*9?9*9*9?9*9,32.77,23.19,71.3,0,0,0,0,0,0.5,0,0,9999,9999,9,999999999,0,0.0,0,0,0.0,0.0
1997,1,1,3,19,?9?9?9?9E0?9?9?9*9*9?9?9?9?9?9?9*9?9*9*9?9*9,32.62,23.19,71.3,0,0,0,0,0,0.5,0,0,9999,9999,9,999999999,0,0.0,0,0,0.0,0.0
1997,1,1,3,20,?9?9?9?9E0?9?9?9*9*9?9?9?9?9?9?9*9?9*9*9?9*9,32.63,23.19,71.3,0,0,0,0,0,0.5,0,0,9999,9999,9,999999999,0,0.0,0,0,0.0,0.0
1997,1,1,3,21,?9?9?9?9E0?9?9?9*9*9?9?9?9?9?9?9*9?9*9*9?9*9,32.68,23.19,71.3,0,0,0,0,0,0.5,0,0,9999,9999,9,999999999,0,0.0,0,0,0.0,0.0
1997,1,1,3,22,?9?9?9?9E0?9?9?9*9*9?9?9?9?9?9?9*9?9*9*9?9*9,32.74,23.19,71.3,0,0,0,0,0,0.5,0,0,9999,9999,9,999999999,0,0.0,0,0,0.0,0.0
1997,1,1,3,23,?9?9?9?9E0?9?9?9*9*9?9?9?9?9?9?9*9?9*9*9?9*9,32.87,23.19,71.3,0,0,0,0,0,0.5,0,0,9999,9999,9,999999999,0,0.0,0,0,0.0,0.0
1997,1,1,3,24,?9?9?9?9E0?9?9?9*9*9?9?9?9?9?9?9*9?9*9*9?9*9,32.88,23.19,71.3,0,0,0,0,0,0.5,0,0,9999,9999,9,999999999,0,0.0,0,0,0.0,0.0
1997,1,1,3,25,?9?9?9?9E0?9?9?9*9*9?9?9?9?9?9?9*9?9*9*9?9*9,32.81,23.19,71.3,0,0,0,0,0,0.5,0,0,9999,9999,9,999999999,0,0.0,0,0,0.0,0.0
1997,1,1,3,26,?9?9?9?9E0?9?9?9*9*9?9?9?9?9?9?9*9?9*9*9?9*9,32.80,23.19,71.3,0,0,0,0,0,0.5,0,0,9999,9999,9,999999999,0,0.0,0,0,0.0,0.0
1997,1,1,3,27,?9?9?9?9E0?9?9?9*9*9?9?9?9?9?9?9*9?9*9*9?9*9,32.77,23.19,71.3,0,0,0,0,0,0.5,0,0,9999,9999,9,999999999,0,0.0,0,0,0.0,0.0
1997,1,1,3,28,?9?9?9?9E0?9?9?9*9*9?9?9?9?9?9?9*9?9*9*9?9*9,32.86,23.19,71.3,0,0,0,0,0,0.5,0,0,9999,9999,9,999999999,0,0.0,0,0,0.0,0.0
1997,1,1,3,29,?9?9?9?9E0?9?9?9*9*9?9?9?9?9?9?9*9?9*9*9?9*9,32.93,23.19,71.3,0,0,0,0,0,0.5,0,0,9999,9999,9,999999999,0,0.0,0,0,0.0,0.0
1997,1,1,3,30,?9?9?9?9E0?9?9?9*9*9?9?9?9?9?9?9*9?9*9*9?9*9,32.93,23.19,71.3,0,0,0,0,0,0.5,0,0,9999,9999,9,999999999,0,0.0,0,0,0.0,0.0
1997,1,1,3,31,?9?9?9?9E0?9?9?9*9*9?9?9?9?9?9?9*9?9*9*9?9*9,32.76,23.19,71.3,0,0,0,0,0,0.5,0,0,9999,9999,9,999999999,0,0.0,0,0,0.0,0.0
1997,1,1,3,32,?9?9?9?9E0?9?9?9*9*9?9?9?9?9?9?9*9?9*9*9?9*9,32.88,23.19,71.3,0,0,0,0,0,0.5,0,0,9999,9999,9,999999999,0,0.0,0,0,0.0,0.0
1997,1,1,3,33,?9?9?9?9E0?9?9?9*9*9?9?9?9?9?9?9*9?9*9*9?9*9,32.37,23.19,71.3,0,0,0,0,0,0.5,0,0,9999,9999,9,999999999,0,0.0,0,0,0.0,0.0
1997,1,1,3,34,?9?9?9?9E0?9?9?9*9*9?9?9?9?9?9?9*9?9*9*9?9*9,32.39,23.19,71.3,0,0,0,0,0,0.5,0,0,9999,9999,9,999999999,0,0.0,0,0,0.0,0.0
1997,1,1,3,35,?9?9?9?9E0?9?9?9*9*9?9?9?9?9?9?9*9?9*9*9?9*9,32.46,23.19,71.3,0,0,0,0,0,0.5,0,0,9999,9999,9,999999999,0,0.0,0,0,0.0,0.0
1997,1,1,3,36,?9?9?9?9E0?9?9?9*9*9?9?9?9?9?9?9*9?9*9*9?9*9,32.63,23.19,71.3,0,0,0,0,0,0.5,0,0,9999,9999,9,999999999,0,0.0,0,0,0.0,0.0
1997,1,1,3,37,?9?9?9?9E0?9?9?9*9*9?9?9?9?9?9?9*9?9*9*9?9*9,32.56,23.19,71.3,0,0,0,0,0,0.5,0,0,9999,9999,9,999999999,0,0.0,0,0,0.0,0.0
1997,1,1,3,38,?9?9?9?9E0?9?9?9*9*9?9?9?9?9?9?9*9?9*9*9?9*9,32.56,23.19,71.3,0,0,0,0,0,0.5,0,0,9999,9999,9,999999999,0,0.0,0,0,0.0,0.0
1997,1,1,3,39,?9?9?9?9E0?9?9?9*9*9?9?9?9?9?9?9*9?9*9*9?9*9,32.59,23.19,71.3,0,0,0,0,0,0.5,0,0,9999,9999,9,999999999,0,0.0,0,0,0.0,0.0
1997,1,1,3,40,?9?9?9?9E0?9?9?9*9*9?9?9?9?9?9?9*9?9*9*9?9*9,32.61,23.19,71.3,0,0,0,0,0,0.5,0,0,9999,9999,9,999999999,0,0.0,0,0,0.0,0.0
1997,1,1,3,41,?9?9?9?9E0?9?9?9*9*9?9?9?9?9?9?9*9?9*9*9?9*9,32.68,23.19,71.3,0,0,0,0,0,0.5,0,0,9999,9999,9,999999999,0,0.0,0,0,0.0,0.0
1997,1,1,3,42,?9?9?9?9E0?9?9?9*9*9?9?9?9?9?9?9*9?9*9*9?9*9,32.82,23.19,71.3,0,0,0,0,0,0.5,0,0,9999,9999,9,999999999,0,0.0,0,0,0.0,0.0
1997,1,1,3,43,?9?9?9?9E0?9?9?9*9*9?9?9?9?9?9?9*9?9*9*9?9*9,32.75,23.19,71.3,0,0,0,0,0,0.5,0,0,9999,9999,9,999999999,0,0.0,0,0,0.0,0.0
1997,1,1,3,44,?9?9?9?9E0?9?9?9*9*9?9?9?9?9?9?9*9?9*9*9?9*9,32.79,23.19,71.3,0,0,0,0,0,0.5,0,0,9999,9999,9,999999999,0,0.0,0,0,0.0,0.0
1997,1,1,3,45,?9?9?9?9E0?9?9?9*9*9?9?9?9?9?9?9*9?9*9*9?9*9,32.59,23.19,71.3,0,0,0,0,0,0.5,0,0,9999,9999,9,999999999,0,0.0,0,0,0.0,0.0
1997,1,1,3,46,?9?9?9?9E0?9?9?9*9*9?9?9?9?9?9?9*9?9*9*9?9*9,32.62,23.19,71.3,0,0,0,0,0,0.5,0,0,9999,9999,9,999999999,0,0.0,0,0,0.0,0.0
1997,1,1,3,47,?9?9?9?9E0?9?9?9*9*9?9?9?9?9?9?9*9?9*9*9?9*9,32.50,23.19,71.3,0,0,0,0,0,0.5,0,0,9999,9999,9,999999999,0,0.0,0,0,0.0,0.0
1997,1,1,3,48,?9?9?9?9E0?9?9?9*9*9?9?9?9?9?9?9*9?9*9*9?9*9,32.60,23.19,71.3,0,0,0,0,0,0.5,0,0,9999,9999,9,999999999,0,0.0,0,0,0.0,0.0
1997,1,1,3,49,?9?9?9?9E0?9?9?9*9*9?9?9?9?9?9?9*9?9*9*9?9*9,32.32,23.19,71.3,0,0,0,0,0,0.5,0,0,9999,9999,9,999999999,0,0.0,0,0,0.0,0.0
1997,1,1,3,50,?9?9?9?9E0?9?9?9*9*9?9?9?9?9?9?9*9?9*9*9?9*9,30.52,23.19,71.3,0,0,0,0,0,0.5,0,0,9999,9999,9,999999999,0,0.0,0,0,0.0,0.0
1997,1,1,3,51,?9?9?9?9E0?9?9?9*9*9?9?9?9?9?9?9*9?9*9*9?9*9,30.57,23.19,71.3,0,0,0,0,0,0.5,0,0,9999,9999,9,999999999,0,0.0,0,0,0.0,0.0
1997,1,1,3,52,?9?9?9?9E0?9?9?9*9*9?9?9?9?9?9?9*9?9*9*9?9*9,30.56,23.19,71.3,0,0,0,0,0,0.5,0,0,9999,9999,9,999999999,0,0.0,0,0,0.0,0.0
1997,1,1,3,53,?9?9?9?9E0?9?9?9*9*9?9?9?9?9?9?9*9?9*9*9?9*9,30.51,23.19,71.3,0,0,0,0,0,0.5,0,0,9999,9999,9,999999999,0,0.0,0,0,0.0,0.0
1997,1,1,3,54,?9?9?9?9E0?9?9?9*9*9?9?9?9?9?9?9*9?9*9*9?9*9,30.52,23.19,71.3,0,0,0,0,0,0.5,0,0,9999,9999,9,999999999,0,0.0,0,0,0.0,0.0
1997,1,1,3,55,?9?9?9?9E0?9?9?9*9*9?9?9?9?9?9?9*9?9*9*9?9*9,30.49,23.19,71.3,0,0,0,0,0,0.5,0,0,9999,9999,9,999999999,0,0.0,0,0,0.0,0.0
1997,1,1,3,56,?9?9?9?9E0?9?9?9*9*9?9?9?9?9?9?9*9?9*9*9?9*9,30.53,23.19,71.3,0,0,0,0,0,0.5,0,0,9999,9999,9,999999999,0,0.0,0,0,0.0,0.0
1997,1,1,3,57,?9?9?9?9E0?9?9?9*9*9?9?9?9?9?9?9*9?9*9*9?9*9,30.47,23.19,71.3,0,0,0,0,0,0.5,0,0,9999,9999,9,999999999,0,0.0,0,0,0.0,0.0
1997,1,1,3,58,?9?9?9?9E0?9?9?9*9*9?9?9?9?9?9?9*9?9*9*9?9*9,30.47,23.19,71.3,0,0,0,0,0,0.5,0,0,9999,9999,9,999999999,0,0.0,0,0,0.0,0.0
1997,1,1,3,59,?9?9?9?9E0?9?9?9*9*9?9?9?9?9?9?9*9?9*9*9?9*9,30.49,23.19,71.3,0,0,0,0,0,0.5,0,0,9999,9999,9,999999999,0,0.0,0,0,0.0,0.0
1997,1,1,3,60,?9?9?9?9E0?9?9?9*9*9?9?9?9?9?9?9*9?9*9*9?9*9,30.41,23.19,71.3,0,0,0,0,0,0.5,0,0,9999,9999,9,999999999,0,0.0,0,0,0.0,0.0
1997,1,1,4,1,?9?9?9?9E0?9?9?9*9*9?9?9?9?9?9?9*9?9*9*9?9*9,30.49,23.19,71.3,0,0,0,0,0,0.5,0,0,9999,9999,9,999999999,0,0.0,0,0,0.0,0.0
1997,1,1,4,2,?9?9?9?9E0?9?9?9*9*9?9?9?9?9?9?9*9?9*9*9?9*9,30.49,23.19,71.3,0,0,0,0,0,0.5,0,0,9999,9999,9,999999999,0,0.0,0,0,0.0,0.0
1997,1,1,4,3,?9?9?9?9E0?9?9?9*9*9?9?9?9?9?9?9*9?9*9*9?9*9,30.57,23.19,71.3,0,0,0,0,0,0.5,0,0,9999,9999,9,999999999,0,0.0,0,0,0.0,0.0
1997,1,1,4,4,?9?9?9?9E0?9?9?9*9*9?9?9?9?9?9?9*9?9*9*9?9*9,30.79,23.19,71.3,0,0,0,0,0,0.5,0,0,9999,9999,9,999999999,0,0.0,0,0,0.0,0.0
1997,1,1,4,5,?9?9?9?9E0?9?9?9*9*9?9?9?9?9?9?9*9?9*9*9?9*9,30.92,23.19,71.3,0,0,0,0,0,0.5,0,0,9999,9999,9,999999999,0,0.0,0,0,0.0,0.0
1997,1,1,4,6,?9?9?9?9E0?9?9?9*9*9?9?9?9?9?9?9*9?9*9*9?9*9,30.92,23.19,71.3,0,0,0,0,0,0.5,0,0,9999,9999,9,999999999,0,0.0,0,0,0.0,0.0
1997,1,1,4,7,?9?9?9?9E0?9?9?9*9*9?9?9?9?9?9?9*9?9*9*9?9*9,30.92,23.19,71.3,0,0,0,0,0,0.5,0,0,9999,9999,9,999999999,0,0.0,0,0,0.0,0.0
1997,1,1,4,8,?9?9?9?9E0?9?9?9*9*9?9?9?9?9?9?9*9?9*9*9?9*9,30.92,23.19,71.3,0,0,0,0,0,0.5,0,0,9999,9999,9,999999999,0,0.0,0,0,0.0,0.0
1997,1,1,4,9,?9?9?9?9E0?9?9?9*9*9?9?9?9?9?9?9*9?9*9*9?9*9,30.92,23.19,71.3,0,0,0,0,0,0.5,0,0,9999,9999,9,999999999,0,0.0,0,0,0.0,0.0
1997,1,1,4,10,?9?9?9?9E0?9?9?9*9*9?9?9?9?9?9?9*9?9*9*9?9*9,30.92,23.19,71.3,0,0,0,0,0,0.5,0,0,9999,9999,9,999999999,0,0.0,0,0,0.0,0.0
1997,1,1,4,11,?9?9?9?9E0?9?9?9*9*9?9?9?9?9?9?9*9?9*9*9?9*9,30.92,23.19,71.3,0,0,0,0,0,0.5,0,0,9999,9999,9,999999999,0,0.0,0,0,0.0,0.0
1997,1,1,4,12,?9?9?9?9E0?9?9?9*9*9?9?9?9?9?9?9*9?9*9*9?9*9,31.52,23.19,71.3,0,0,0,0,0,0.5,0,0,9999,9999,9,999999999,0,0.0,0,0,0.0,0.0
1997,1,1,4,13,?9?9?9?9E0?9?9?9*9*9?9?9?9?9?9?9*9?9*9*9?9*9,32.63,23.19,71.3,0,0,0,0,0,0.5,0,0,9999,9999,9,999999999,0,0.0,0,0,0.0,0.0
1997,1,1,4,14,?9?9?9?9E0?9?9?9*9*9?9?9?9?9?9?9*9?9*9*9?9*9,32.59,23.19,71.3,0,0,0,0,0,0.5,0,0,9999,9999,9,999999999,0,0.0,0,0,0.0,0.0
1997,1,1,4,15,?9?9?9?9E0?9?9?9*9*9?9?9?9?9?9?9*9?9*9*9?9*9,32.62,23.19,71.3,0,0,0,0,0,0.5,0,0,9999,9999,9,999999999,0,0.0,0,0,0.0,0.0
1997,1,1,4,16,?9?9?9?9E0?9?9?9*9*9?9?9?9?9?9?9*9?9*9*9?9*9,32.64,23.19,71.3,0,0,0,0,0,0.5,0,0,9999,9999,9,999999999,0,0.0,0,0,0.0,0.0
1997,1,1,4,17,?9?9?9?9E0?9?9?9*9*9?9?9?9?9?9?9*9?9*9*9?9*9,32.74,23.19,71.3,0,0,0,0,0,0.5,0,0,9999,9999,9,999999999,0,0.0,0,0,0.0,0.0
1997,1,1,4,18,?9?9?9?9E0?9?9?9*9*9?9?9?9?9?9?9*9?9*9*9?9*9,32.85,23.25,71.2,0,0,0,0,0,0.5,0,0,9999,9999,9,999999999,0,0.0,0,0,0.0,0.0
1997,1,1,4,19,?9?9?9?9E0?9?9?9*9*9?9?9?9?9?9?9*9?9*9*9?9*9,32.81,23.35,71.0,0,0,0,0,0,0.5,0,0,9999,9999,9,999999999,0,0.0,0,0,0.0,0.0
1997,1,1,4,20,?9?9?9?9E0?9?9?9*9*9?9?9?9?9?9?9*9?9*9*9?9*9,32.86,23.10,69.6,0,0,0,0,0,0.5,0,0,9999,9999,9,999999999,0,0.0,0,0,0.0,0.0
1997,1,1,4,21,?9?9?9?9E0?9?9?9*9*9?9?9?9?9?9?9*9?9*9*9?9*9,32.65,23.13,69.6,0,0,0,0,0,0.5,0,0,9999,9999,9,999999999,0,0.0,0,0,0.0,0.0
1997,1,1,4,22,?9?9?9?9E0?9?9?9*9*9?9?9?9?9?9?9*9?9*9*9?9*9,32.69,23.16,69.2,0,0,0,0,0,0.5,0,0,9999,9999,9,999999999,0,0.0,0,0,0.0,0.0
1997,1,1,4,23,?9?9?9?9E0?9?9?9*9*9?9?9?9?9?9?9*9?9*9*9?9*9,32.68,22.98,68.3,0,0,0,0,0,0.5,0,0,9999,9999,9,999999999,0,0.0,0,0,0.0,0.0
1997,1,1,4,24,?9?9?9?9E0?9?9?9*9*9?9?9?9?9?9?9*9?9*9*9?9*9,32.76,23.03,68.5,0,0,0,0,0,0.5,0,0,9999,9999,9,999999999,0,0.0,0,0,0.0,0.0
1997,1,1,4,25,?9?9?9?9E0?9?9?9*9*9?9?9?9?9?9?9*9?9*9*9?9*9,32.66,23.32,69.5,0,0,0,0,0,0.5,0,0,9999,9999,9,999999999,0,0.0,0,0,0.0,0.0
1997,1,1,4,26,?9?9?9?9E0?9?9?9*9*9?9?9?9?9?9?9*9?9*9*9?9*9,32.82,23.26,69.2,0,0,0,0,0,0.5,0,0,9999,9999,9,999999999,0,0.0,0,0,0.0,0.0
1997,1,1,4,27,?9?9?9?9E0?9?9?9*9*9?9?9?9?9?9?9*9?9*9*9?9*9,32.85,23.28,68.9,0,0,0,0,0,0.5,0,0,9999,9999,9,999999999,0,0.0,0,0,0.0,0.0
1997,1,1,4,28,?9?9?9?9E0?9?9?9*9*9?9?9?9?9?9?9*9?9*9*9?9*9,32.74,23.30,68.3,0,0,0,0,0,0.5,0,0,9999,9999,9,999999999,0,0.0,0,0,0.0,0.0
1997,1,1,4,29,?9?9?9?9E0?9?9?9*9*9?9?9?9?9?9?9*9?9*9*9?9*9,33.45,23.33,68.1,0,0,0,0,0,0.5,0,0,9999,9999,9,999999999,0,0.0,0,0,0.0,0.0
1997,1,1,4,30,?9?9?9?9E0?9?9?9*9*9?9?9?9?9?9?9*9?9*9*9?9*9,34.06,23.50,68.2,0,0,0,0,0,0.5,0,0,9999,9999,9,999999999,0,0.0,0,0,0.0,0.0
1997,1,1,4,31,?9?9?9?9E0?9?9?9*9*9?9?9?9?9?9?9*9?9*9*9?9*9,34.09,23.31,67.2,0,0,0,0,0,0.5,0,0,9999,9999,9,999999999,0,0.0,0,0,0.0,0.0
1997,1,1,4,32,?9?9?9?9E0?9?9?9*9*9?9?9?9?9?9?9*9?9*9*9?9*9,34.10,23.18,66.8,0,0,0,0,0,0.5,0,0,9999,9999,9,999999999,0,0.0,0,0,0.0,0.0
1997,1,1,4,33,?9?9?9?9E0?9?9?9*9*9?9?9?9?9?9?9*9?9*9*9?9*9,34.10,23.20,67.3,0,0,0,0,0,0.5,0,0,9999,9999,9,999999999,0,0.0,0,0,0.0,0.0
1997,1,1,4,34,?9?9?9?9E0?9?9?9*9*9?9?9?9?9?9?9*9?9*9*9?9*9,34.08,23.26,67.9,0,0,0,0,0,0.5,0,0,9999,9999,9,999999999,0,0.0,0,0,0.0,0.0
1997,1,1,4,35,?9?9?9?9E0?9?9?9*9*9?9?9?9?9?9?9*9?9*9*9?9*9,34.11,23.36,68.0,0,0,0,0,0,0.5,0,0,9999,9999,9,999999999,0,0.0,0,0,0.0,0.0
1997,1,1,4,36,?9?9?9?9E0?9?9?9*9*9?9?9?9?9?9?9*9?9*9*9?9*9,33.95,23.34,67.4,0,0,0,0,0,0.5,0,0,9999,9999,9,999999999,0,0.0,0,0,0.0,0.0
1997,1,1,4,37,?9?9?9?9E0?9?9?9*9*9?9?9?9?9?9?9*9?9*9*9?9*9,33.98,23.34,67.4,0,0,0,0,0,0.5,0,0,9999,9999,9,999999999,0,0.0,0,0,0.0,0.0
1997,1,1,4,38,?9?9?9?9E0?9?9?9*9*9?9?9?9?9?9?9*9?9*9*9?9*9,34.04,23.34,67.4,0,0,0,0,0,0.5,0,0,9999,9999,9,999999999,0,0.0,0,0,0.0,0.0
1997,1,1,4,39,?9?9?9?9E0?9?9?9*9*9?9?9?9?9?9?9*9?9*9*9?9*9,34.00,23.55,67.2,0,0,0,0,0,0.5,0,0,9999,9999,9,999999999,0,0.0,0,0,0.0,0.0
1997,1,1,4,40,?9?9?9?9E0?9?9?9*9*9?9?9?9?9?9?9*9?9*9*9?9*9,34.10,23.67,67.4,0,0,0,0,0,0.5,0,0,9999,9999,9,999999999,0,0.0,0,0,0.0,0.0
1997,1,1,4,41,?9?9?9?9E0?9?9?9*9*9?9?9?9?9?9?9*9?9*9*9?9*9,34.17,23.73,67.1,0,0,0,0,0,0.5,0,0,9999,9999,9,999999999,0,0.0,0,0,0.0,0.0
1997,1,1,4,42,?9?9?9?9E0?9?9?9*9*9?9?9?9?9?9?9*9?9*9*9?9*9,34.21,23.56,66.1,0,0,0,0,0,0.5,0,0,9999,9999,9,999999999,0,0.0,0,0,0.0,0.0
1997,1,1,4,43,?9?9?9?9E0?9?9?9*9*9?9?9?9?9?9?9*9?9*9*9?9*9,34.24,23.69,66.4,0,0,0,0,0,0.5,0,0,9999,9999,9,999999999,0,0.0,0,0,0.0,0.0
1997,1,1,4,44,?9?9?9?9E0?9?9?9*9*9?9?9?9?9?9?9*9?9*9*9?9*9,34.18,23.42,65.5,0,0,0,0,0,0.5,0,0,9999,9999,9,999999999,0,0.0,0,0,0.0,0.0
1997,1,1,4,45,?9?9?9?9E0?9?9?9*9*9?9?9?9?9?9?9*9?9*9*9?9*9,34.14,23.46,65.7,0,0,0,0,0,0.5,0,0,9999,9999,9,999999999,0,0.0,0,0,0.0,0.0
1997,1,1,4,46,?9?9?9?9E0?9?9?9*9*9?9?9?9?9?9?9*9?9*9*9?9*9,32.95,23.59,65.8,0,0,0,0,0,0.5,0,0,9999,9999,9,999999999,0,0.0,0,0,0.0,0.0
1997,1,1,4,47,?9?9?9?9E0?9?9?9*9*9?9?9?9?9?9?9*9?9*9*9?9*9,32.73,23.42,65.0,0,0,0,0,0,0.5,0,0,9999,9999,9,999999999,0,0.0,0,0,0.0,0.0
1997,1,1,4,48,?9?9?9?9E0?9?9?9*9*9?9?9?9?9?9?9*9?9*9*9?9*9,32.64,23.61,65.5,0,0,0,0,0,0.5,0,0,9999,9999,9,999999999,0,0.0,0,0,0.0,0.0
1997,1,1,4,49,?9?9?9?9E0?9?9?9*9*9?9?9?9?9?9?9*9?9*9*9?9*9,32.65,23.71,65.8,0,0,0,0,0,0.5,0,0,9999,9999,9,999999999,0,0.0,0,0,0.0,0.0
1997,1,1,4,50,?9?9?9?9E0?9?9?9*9*9?9?9?9?9?9?9*9?9*9*9?9*9,32.54,23.46,64.7,0,0,0,0,0,0.5,0,0,9999,9999,9,999999999,0,0.0,0,0,0.0,0.0
1997,1,1,4,51,?9?9?9?9E0?9?9?9*9*9?9?9?9?9?9?9*9?9*9*9?9*9,32.60,23.37,64.2,0,0,0,0,0,0.5,0,0,9999,9999,9,999999999,0,0.0,0,0,0.0,0.0
1997,1,1,4,52,?9?9?9?9E0?9?9?9*9*9?9?9?9?9?9?9*9?9*9*9?9*9,32.60,23.43,65.4,0,0,0,0,0,0.5,0,0,9999,9999,9,999999999,0,0.0,0,0,0.0,0.0
1997,1,1,4,53,?9?9?9?9E0?9?9?9*9*9?9?9?9?9?9?9*9?9*9*9?9*9,32.58,23.60,65.8,0,0,0,0,0,0.5,0,0,9999,9999,9,999999999,0,0.0,0,0,0.0,0.0
1997,1,1,4,54,?9?9?9?9E0?9?9?9*9*9?9?9?9?9?9?9*9?9*9*9?9*9,32.52,23.58,65.3,0,0,0,0,0,0.5,0,0,9999,9999,9,999999999,0,0.0,0,0,0.0,0.0
1997,1,1,4,55,?9?9?9?9E0?9?9?9*9*9?9?9?9?9?9?9*9?9*9*9?9*9,32.50,23.57,65.0,0,0,0,0,0,0.5,0,0,9999,9999,9,999999999,0,0.0,0,0,0.0,0.0
1997,1,1,4,56,?9?9?9?9E0?9?9?9*9*9?9?9?9?9?9?9*9?9*9*9?9*9,32.59,23.35,63.8,0,0,0,0,0,0.5,0,0,9999,9999,9,999999999,0,0.0,0,0,0.0,0.0
1997,1,1,4,57,?9?9?9?9E0?9?9?9*9*9?9?9?9?9?9?9*9?9*9*9?9*9,32.66,23.66,65.0,0,0,0,0,0,0.5,0,0,9999,9999,9,999999999,0,0.0,0,0,0.0,0.0
1997,1,1,4,58,?9?9?9?9E0?9?9?9*9*9?9?9?9?9?9?9*9?9*9*9?9*9,32.66,23.40,64.0,0,0,0,0,0,0.5,0,0,9999,9999,9,999999999,0,0.0,0,0,0.0,0.0
1997,1,1,4,59,?9?9?9?9E0?9?9?9*9*9?9?9?9?9?9?9*9?9*9*9?9*9,32.70,23.39,64.1,0,0,0,0,0,0.5,0,0,9999,9999,9,999999999,0,0.0,0,0,0.0,0.0
1997,1,1,4,60,?9?9?9?9E0?9?9?9*9*9?9?9?9?9?9?9*9?9*9*9?9*9,32.74,23.45,64.6,0,0,0,0,0,0.5,0,0,9999,9999,9,999999999,0,0.0,0,0,0.0,0.0
1997,1,1,5,1,?9?9?9?9E0?9?9?9*9*9?9?9?9?9?9?9*9?9*9*9?9*9,32.84,23.72,65.9,0,0,0,0,0,0.5,0,0,9999,9999,9,999999999,0,0.0,0,0,0.0,0.0
1997,1,1,5,2,?9?9?9?9E0?9?9?9*9*9?9?9?9?9?9?9*9?9*9*9?9*9,32.75,23.60,65.4,0,0,0,0,0,0.5,0,0,9999,9999,9,999999999,0,0.0,0,0,0.0,0.0
1997,1,1,5,3,?9?9?9?9E0?9?9?9*9*9?9?9?9?9?9?9*9?9*9*9?9*9,32.79,23.37,64.0,0,0,0,0,0,0.5,0,0,9999,9999,9,999999999,0,0.0,0,0,0.0,0.0
1997,1,1,5,4,?9?9?9?9E0?9?9?9*9*9?9?9?9?9?9?9*9?9*9*9?9*9,32.72,23.51,64.7,0,0,0,0,0,0.5,0,0,9999,9999,9,999999999,0,0.0,0,0,0.0,0.0
1997,1,1,5,5,?9?9?9?9E0?9?9?9*9*9?9?9?9?9?9?9*9?9*9*9?9*9,32.61,23.55,65.4,0,0,0,0,0,0.5,0,0,9999,9999,9,999999999,0,0.0,0,0,0.0,0.0
1997,1,1,5,6,?9?9?9?9E0?9?9?9*9*9?9?9?9?9?9?9*9?9*9*9?9*9,32.65,23.58,65.3,0,0,0,0,0,0.5,0,0,9999,9999,9,999999999,0,0.0,0,0,0.0,0.0
1997,1,1,5,7,?9?9?9?9E0?9?9?9*9*9?9?9?9?9?9?9*9?9*9*9?9*9,32.70,23.67,66.0,0,0,0,0,0,0.5,0,0,9999,9999,9,999999999,0,0.0,0,0,0.0,0.0
1997,1,1,5,8,?9?9?9?9E0?9?9?9*9*9?9?9?9?9?9?9*9?9*9*9?9*9,32.60,23.69,65.7,0,0,0,0,0,0.5,0,0,9999,9999,9,999999999,0,0.0,0,0,0.0,0.0
1997,1,1,5,9,?9?9?9?9E0?9?9?9*9*9?9?9?9?9?9?9*9?9*9*9?9*9,32.62,23.42,64.8,0,0,0,0,0,0.5,0,0,9999,9999,9,999999999,0,0.0,0,0,0.0,0.0
1997,1,1,5,10,?9?9?9?9E0?9?9?9*9*9?9?9?9?9?9?9*9?9*9*9?9*9,32.67,23.49,64.9,0,0,0,0,0,0.5,0,0,9999,9999,9,999999999,0,0.0,0,0,0.0,0.0
1997,1,1,5,11,?9?9?9?9E0?9?9?9*9*9?9?9?9?9?9?9*9?9*9*9?9*9,32.67,23.44,64.7,0,0,0,0,0,0.5,0,0,9999,9999,9,999999999,0,0.0,0,0,0.0,0.0
1997,1,1,5,12,?9?9?9?9E0?9?9?9*9*9?9?9?9?9?9?9*9?9*9*9?9*9,32.60,23.33,64.7,0,0,0,0,0,0.5,0,0,9999,9999,9,999999999,0,0.0,0,0,0.0,0.0
1997,1,1,5,13,?9?9?9?9E0?9?9?9*9*9?9?9?9?9?9?9*9?9*9*9?9*9,32.48,23.45,64.6,0,0,0,0,0,0.5,0,0,9999,9999,9,999999999,0,0.0,0,0,0.0,0.0
1997,1,1,5,14,?9?9?9?9E0?9?9?9*9*9?9?9?9?9?9?9*9?9*9*9?9*9,32.45,23.41,64.8,0,0,0,0,0,0.5,0,0,9999,9999,9,999999999,0,0.0,0,0,0.0,0.0
1997,1,1,5,15,?9?9?9?9E0?9?9?9*9*9?9?9?9?9?9?9*9?9*9*9?9*9,32.46,23.47,64.4,0,0,0,0,0,0.5,0,0,9999,9999,9,999999999,0,0.0,0,0,0.0,0.0
1997,1,1,5,16,?9?9?9?9E0?9?9?9*9*9?9?9?9?9?9?9*9?9*9*9?9*9,32.54,23.69,65.2,0,0,0,0,0,0.5,0,0,9999,9999,9,999999999,0,0.0,0,0,0.0,0.0
1997,1,1,5,17,?9?9?9?9E0?9?9?9*9*9?9?9?9?9?9?9*9?9*9*9?9*9,30.19,23.39,64.4,0,0,0,0,0,0.5,0,0,9999,9999,9,999999999,0,0.0,0,0,0.0,0.0
1997,1,1,5,18,?9?9?9?9E0?9?9?9*9*9?9?9?9?9?9?9*9?9*9*9?9*9,29.10,23.34,64.1,0,0,0,0,0,0.5,0,0,9999,9999,9,999999999,0,0.0,0,0,0.0,0.0
1997,1,1,5,19,?9?9?9?9E0?9?9?9*9*9?9?9?9?9?9?9*9?9*9*9?9*9,29.15,23.62,65.0,0,0,0,0,0,0.5,0,0,9999,9999,9,999999999,0,0.0,0,0,0.0,0.0
1997,1,1,5,20,?9?9?9?9E0?9?9?9*9*9?9?9?9?9?9?9*9?9*9*9?9*9,29.16,23.37,63.6,0,0,0,0,0,0.5,0,0,9999,9999,9,999999999,0,0.0,0,0,0.0,0.0
1997,1,1,5,21,?9?9?9?9E0?9?9?9*9*9?9?9?9?9?9?9*9?9*9*9?9*9,29.28,23.32,63.7,0,0,0,0,0,0.5,0,0,9999,9999,9,999999999,0,0.0,0,0,0.0,0.0
1997,1,1,5,22,?9?9?9?9E0?9?9?9*9*9?9?9?9?9?9?9*9?9*9*9?9*9,29.33,23.56,64.5,0,0,0,0,0,0.5,0,0,9999,9999,9,999999999,0,0.0,0,0,0.0,0.0
1997,1,1,5,23,?9?9?9?9E0?9?9?9*9*9?9?9?9?9?9?9*9?9*9*9?9*9,29.33,23.21,63.0,0,0,0,0,0,0.5,0,0,9999,9999,9,999999999,0,0.0,0,0,0.0,0.0
1997,1,1,5,24,?9?9?9?9E0?9?9?9*9*9?9?9?9?9?9?9*9?9*9*9?9*9,29.40,23.46,63.9,0,0,0,0,0,0.5,0,0,9999,9999,9,999999999,0,0.0,0,0,0.0,0.0
1997,1,1,5,25,?9?9?9?9E0?9?9?9*9*9?9?9?9?9?9?9*9?9*9*9?9*9,29.44,23.07,62.1,0,0,0,0,0,0.5,0,0,9999,9999,9,999999999,0,0.0,0,0,0.0,0.0
1997,1,1,5,26,?9?9?9?9E0?9?9?9*9*9?9?9?9?9?9?9*9?9*9*9?9*9,29.48,23.13,62.6,0,0,0,0,0,0.5,0,0,9999,9999,9,999999999,0,0.0,0,0,0.0,0.0
1997,1,1,5,27,?9?9?9?9E0?9?9?9*9*9?9?9?9?9?9?9*9?9*9*9?9*9,29.61,23.42,64.2,0,0,0,0,0,0.5,0,0,9999,9999,9,999999999,0,0.0,0,0,0.0,0.0
1997,1,1,5,28,?9?9?9?9E0?9?9?9*9*9?9?9?9?9?9?9*9?9*9*9?9*9,29.73,23.47,64.0,0,0,0,0,0,0.5,0,0,9999,9999,9,999999999,0,0.0,0,0,0.0,0.0
1997,1,1,5,29,?9?9?9?9E0?9?9?9*9*9?9?9?9?9?9?9*9?9*9*9?9*9,29.80,23.34,64.1,0,0,0,0,0,0.5,0,0,9999,9999,9,999999999,0,0.0,0,0,0.0,0.0
1997,1,1,5,30,?9?9?9?9E0?9?9?9*9*9?9?9?9?9?9?9*9?9*9*9?9*9,29.86,23.58,64.4,0,0,0,0,0,0.5,0,0,9999,9999,9,999999999,0,0.0,0,0,0.0,0.0
1997,1,1,5,31,?9?9?9?9E0?9?9?9*9*9?9?9?9?9?9?9*9?9*9*9?9*9,30.04,23.49,64.2,0,0,0,0,0,0.5,0,0,9999,9999,9,999999999,0,0.0,0,0,0.0,0.0
1997,1,1,5,32,?9?9?9?9E0?9?9?9*9*9?9?9?9?9?9?9*9?9*9*9?9*9,32.75,23.49,64.2,0,0,0,0,0,0.5,0,0,9999,9999,9,999999999,0,0.0,0,0,0.0,0.0
1997,1,1,5,33,?9?9?9?9E0?9?9?9*9*9?9?9?9?9?9?9*9?9*9*9?9*9,32.72,23.49,64.2,0,0,0,0,0,0.5,0,0,9999,9999,9,999999999,0,0.0,0,0,0.0,0.0
1997,1,1,5,34,?9?9?9?9E0?9?9?9*9*9?9?9?9?9?9?9*9?9*9*9?9*9,32.59,23.49,64.2,0,0,0,0,0,0.5,0,0,9999,9999,9,999999999,0,0.0,0,0,0.0,0.0
1997,1,1,5,35,?9?9?9?9E0?9?9?9*9*9?9?9?9?9?9?9*9?9*9*9?9*9,32.63,23.49,64.2,0,0,0,0,0,0.5,0,0,9999,9999,9,999999999,0,0.0,0,0,0.0,0.0
1997,1,1,5,36,?9?9?9?9E0?9?9?9*9*9?9?9?9?9?9?9*9?9*9*9?9*9,32.62,23.49,64.2,0,0,0,0,0,0.5,0,0,9999,9999,9,999999999,0,0.0,0,0,0.0,0.0
1997,1,1,5,37,?9?9?9?9E0?9?9?9*9*9?9?9?9?9?9?9*9?9*9*9?9*9,32.58,23.49,64.2,0,0,0,0,0,0.5,0,0,9999,9999,9,999999999,0,0.0,0,0,0.0,0.0
1997,1,1,5,38,?9?9?9?9E0?9?9?9*9*9?9?9?9?9?9?9*9?9*9*9?9*9,32.69,23.49,64.2,0,0,0,0,0,0.5,0,0,9999,9999,9,999999999,0,0.0,0,0,0.0,0.0
1997,1,1,5,39,?9?9?9?9E0?9?9?9*9*9?9?9?9?9?9?9*9?9*9*9?9*9,32.70,23.49,64.2,0,0,0,0,0,0.5,0,0,9999,9999,9,999999999,0,0.0,0,0,0.0,0.0
1997,1,1,5,40,?9?9?9?9E0?9?9?9*9*9?9?9?9?9?9?9*9?9*9*9?9*9,32.72,23.49,64.2,0,0,0,0,0,0.5,0,0,9999,9999,9,999999999,0,0.0,0,0,0.0,0.0
1997,1,1,5,41,?9?9?9?9E0?9?9?9*9*9?9?9?9?9?9?9*9?9*9*9?9*9,32.79,23.49,64.2,0,0,0,0,0,0.5,0,0,9999,9999,9,999999999,0,0.0,0,0,0.0,0.0
1997,1,1,5,42,?9?9?9?9E0?9?9?9*9*9?9?9?9?9?9?9*9?9*9*9?9*9,32.85,23.49,64.2,0,0,0,0,0,0.5,0,0,9999,9999,9,999999999,0,0.0,0,0,0.0,0.0
1997,1,1,5,43,?9?9?9?9E0?9?9?9*9*9?9?9?9?9?9?9*9?9*9*9?9*9,32.68,23.49,64.2,0,0,0,0,0,0.5,0,0,9999,9999,9,999999999,0,0.0,0,0,0.0,0.0
1997,1,1,5,44,?9?9?9?9E0?9?9?9*9*9?9?9?9?9?9?9*9?9*9*9?9*9,32.69,23.49,64.2,0,0,0,0,0,0.5,0,0,9999,9999,9,999999999,0,0.0,0,0,0.0,0.0
1997,1,1,5,45,?9?9?9?9E0?9?9?9*9*9?9?9?9?9?9?9*9?9*9*9?9*9,32.71,23.49,64.2,0,0,0,0,0,0.5,0,0,9999,9999,9,999999999,0,0.0,0,0,0.0,0.0
1997,1,1,5,46,?9?9?9?9E0?9?9?9*9*9?9?9?9?9?9?9*9?9*9*9?9*9,32.75,23.49,64.2,0,0,0,0,0,0.5,0,0,9999,9999,9,999999999,0,0.0,0,0,0.0,0.0
1997,1,1,5,47,?9?9?9?9E0?9?9?9*9*9?9?9?9?9?9?9*9?9*9*9?9*9,32.77,23.49,64.2,0,0,0,0,0,0.5,0,0,9999,9999,9,999999999,0,0.0,0,0,0.0,0.0
1997,1,1,5,48,?9?9?9?9E0?9?9?9*9*9?9?9?9?9?9?9*9?9*9*9?9*9,33.07,23.49,64.2,0,0,0,0,0,0.5,0,0,9999,9999,9,999999999,0,0.0,0,0,0.0,0.0
1997,1,1,5,49,?9?9?9?9E0?9?9?9*9*9?9?9?9?9?9?9*9?9*9*9?9*9,33.78,23.49,64.2,0,0,0,0,0,0.5,0,0,9999,9999,9,999999999,0,0.0,0,0,0.0,0.0
1997,1,1,5,50,?9?9?9?9E0?9?9?9*9*9?9?9?9?9?9?9*9?9*9*9?9*9,33.85,23.49,64.2,0,0,0,0,0,0.5,0,0,9999,9999,9,999999999,0,0.0,0,0,0.0,0.0
1997,1,1,5,51,?9?9?9?9E0?9?9?9*9*9?9?9?9?9?9?9*9?9*9*9?9*9,33.88,23.49,64.2,0,0,0,0,0,0.5,0,0,9999,9999,9,999999999,0,0.0,0,0,0.0,0.0
1997,1,1,5,52,?9?9?9?9E0?9?9?9*9*9?9?9?9?9?9?9*9?9*9*9?9*9,33.80,23.49,64.2,0,0,0,0,0,0.5,0,0,9999,9999,9,999999999,0,0.0,0,0,0.0,0.0
1997,1,1,5,53,?9?9?9?9E0?9?9?9*9*9?9?9?9?9?9?9*9?9*9*9?9*9,33.78,23.49,64.2,0,0,0,0,0,0.5,0,0,9999,9999,9,999999999,0,0.0,0,0,0.0,0.0
1997,1,1,5,54,?9?9?9?9E0?9?9?9*9*9?9?9?9?9?9?9*9?9*9*9?9*9,33.68,23.49,64.2,0,0,0,0,0,0.5,0,0,9999,9999,9,999999999,0,0.0,0,0,0.0,0.0
1997,1,1,5,55,?9?9?9?9E0?9?9?9*9*9?9?9?9?9?9?9*9?9*9*9?9*9,33.74,23.49,64.2,0,0,0,0,0,0.5,0,0,9999,9999,9,999999999,0,0.0,0,0,0.0,0.0
1997,1,1,5,56,?9?9?9?9E0?9?9?9*9*9?9?9?9?9?9?9*9?9*9*9?9*9,33.68,23.49,64.2,0,0,0,0,0,0.5,0,0,9999,9999,9,999999999,0,0.0,0,0,0.0,0.0
1997,1,1,5,57,?9?9?9?9E0?9?9?9*9*9?9?9?9?9?9?9*9?9*9*9?9*9,33.78,23.49,64.2,0,0,0,0,0,0.5,0,0,9999,9999,9,999999999,0,0.0,0,0,0.0,0.0
1997,1,1,5,58,?9?9?9?9E0?9?9?9*9*9?9?9?9?9?9?9*9?9*9*9?9*9,33.80,23.49,64.2,0,0,0,0,0,0.5,0,0,9999,9999,9,999999999,0,0.0,0,0,0.0,0.0
1997,1,1,5,59,?9?9?9?9E0?9?9?9*9*9?9?9?9?9?9?9*9?9*9*9?9*9,33.77,23.49,64.2,0,0,0,0,0,0.5,0,0,9999,9999,9,999999999,0,0.0,0,0,0.0,0.0
1997,1,1,5,60,?9?9?9?9E0?9?9?9*9*9?9?9?9?9?9?9*9?9*9*9?9*9,33.70,23.49,64.2,0,0,0,0,0,0.5,0,0,9999,9999,9,999999999,0,0.0,0,0,0.0,0.0
1997,1,1,6,1,?9?9?9?9E0?9?9?9*9*9?9?9?9?9?9?9*9?9*9*9?9*9,33.83,23.49,64.2,0,0,0,0,0,0.5,0,0,9999,9999,9,999999999,0,0.0,0,0,0.0,0.0
1997,1,1,6,2,?9?9?9?9E0?9?9?9*9*9?9?9?9?9?9?9*9?9*9*9?9*9,33.82,23.49,64.2,0,0,0,0,0,0.5,0,0,9999,9999,9,999999999,0,0.0,0,0,0.0,0.0
1997,1,1,6,3,?9?9?9?9E0?9?9?9*9*9?9?9?9?9?9?9*9?9*9*9?9*9,33.76,23.49,64.2,0,0,0,0,0,0.5,0,0,9999,9999,9,999999999,0,0.0,0,0,0.0,0.0
1997,1,1,6,4,?9?9?9?9E0?9?9?9*9*9?9?9?9?9?9?9*9?9*9*9?9*9,33.77,23.49,64.2,0,0,0,0,0,0.5,0,0,9999,9999,9,999999999,0,0.0,0,0,0.0,0.0
1997,1,1,6,5,?9?9?9?9E0?9?9?9*9*9?9?9?9?9?9?9*9?9*9*9?9*9,32.10,23.49,64.2,0,0,0,0,0,0.5,0,0,9999,9999,9,999999999,0,0.0,0,0,0.0,0.0
1997,1,1,6,6,?9?9?9?9E0?9?9?9*9*9?9?9?9?9?9?9*9?9*9*9?9*9,30.92,23.49,64.2,0,0,0,0,0,0.5,0,0,9999,9999,9,999999999,0,0.0,0,0,0.0,0.0
1997,1,1,6,7,?9?9?9?9E0?9?9?9*9*9?9?9?9?9?9?9*9?9*9*9?9*9,30.92,23.49,64.2,0,0,0,0,0,0.5,0,0,9999,9999,9,999999999,0,0.0,0,0,0.0,0.0
1997,1,1,6,8,?9?9?9?9E0?9?9?9*9*9?9?9?9?9?9?9*9?9*9*9?9*9,30.92,23.49,64.2,0,0,0,0,0,0.5,0,0,9999,9999,9,999999999,0,0.0,0,0,0.0,0.0
1997,1,1,6,9,?9?9?9?9E0?9?9?9*9*9?9?9?9?9?9?9*9?9*9*9?9*9,30.92,23.49,64.2,0,0,0,0,0,0.5,0,0,9999,9999,9,999999999,0,0.0,0,0,0.0,0.0
1997,1,1,6,10,?9?9?9?9E0?9?9?9*9*9?9?9?9?9?9?9*9?9*9*9?9*9,30.92,23.49,64.2,0,0,0,0,0,0.5,0,0,9999,9999,9,999999999,0,0.0,0,0,0.0,0.0
1997,1,1,6,11,?9?9?9?9E0?9?9?9*9*9?9?9?9?9?9?9*9?9*9*9?9*9,30.92,23.49,64.2,0,0,0,0,0,0.5,0,0,9999,9999,9,999999999,0,0.0,0,0,0.0,0.0
1997,1,1,6,12,?9?9?9?9E0?9?9?9*9*9?9?9?9?9?9?9*9?9*9*9?9*9,30.92,23.49,64.2,0,0,0,0,0,0.5,0,0,9999,9999,9,999999999,0,0.0,0,0,0.0,0.0
1997,1,1,6,13,?9?9?9?9E0?9?9?9*9*9?9?9?9?9?9?9*9?9*9*9?9*9,31.46,23.49,64.2,0,0,0,0,0,0.5,0,0,9999,9999,9,999999999,0,0.0,0,0,0.0,0.0
1997,1,1,6,14,?9?9?9?9E0?9?9?9*9*9?9?9?9?9?9?9*9?9*9*9?9*9,32.58,23.49,64.2,0,0,0,0,0,0.5,0,0,9999,9999,9,999999999,0,0.0,0,0,0.0,0.0
1997,1,1,6,15,?9?9?9?9E0?9?9?9*9*9?9?9?9?9?9?9*9?9*9*9?9*9,32.57,23.49,64.2,0,0,0,0,0,0.5,0,0,9999,9999,9,999999999,0,0.0,0,0,0.0,0.0
1997,1,1,6,16,?9?9?9?9E0?9?9?9*9*9?9?9?9?9?9?9*9?9*9*9?9*9,32.46,23.49,64.2,0,0,0,0,0,0.5,0,0,9999,9999,9,999999999,0,0.0,0,0,0.0,0.0
1997,1,1,6,17,?9?9?9?9E0?9?9?9*9*9?9?9?9?9?9?9*9?9*9*9?9*9,32.70,23.49,64.2,0,0,0,0,0,0.5,0,0,9999,9999,9,999999999,0,0.0,0,0,0.0,0.0
1997,1,1,6,18,?9?9?9?9E0?9?9?9*9*9?9?9?9?9?9?9*9?9*9*9?9*9,32.61,23.49,64.2,0,0,0,0,0,0.5,0,0,9999,9999,9,999999999,0,0.0,0,0,0.0,0.0
1997,1,1,6,19,?9?9?9?9E0?9?9?9*9*9?9?9?9?9?9?9*9?9*9*9?9*9,32.65,23.49,64.2,0,0,0,0,0,0.5,0,0,9999,9999,9,999999999,0,0.0,0,0,0.0,0.0
1997,1,1,6,20,?9?9?9?9E0?9?9?9*9*9?9?9?9?9?9?9*9?9*9*9?9*9,32.49,23.49,64.2,0,0,0,0,0,0.5,0,0,9999,9999,9,999999999,0,0.0,0,0,0.0,0.0
1997,1,1,6,21,?9?9?9?9E0?9?9?9*9*9?9?9?9?9?9?9*9?9*9*9?9*9,32.46,23.49,64.2,0,0,0,0,0,0.5,0,0,9999,9999,9,999999999,0,0.0,0,0,0.0,0.0
1997,1,1,6,22,?9?9?9?9E0?9?9?9*9*9?9?9?9?9?9?9*9?9*9*9?9*9,32.37,23.49,64.2,0,0,0,0,0,0.5,0,0,9999,9999,9,999999999,0,0.0,0,0,0.0,0.0
1997,1,1,6,23,?9?9?9?9E0?9?9?9*9*9?9?9?9?9?9?9*9?9*9*9?9*9,32.46,23.49,64.2,0,0,0,0,0,0.5,0,0,9999,9999,9,999999999,0,0.0,0,0,0.0,0.0
1997,1,1,6,24,?9?9?9?9E0?9?9?9*9*9?9?9?9?9?9?9*9?9*9*9?9*9,32.51,23.49,64.2,0,0,0,0,0,0.5,0,0,9999,9999,9,999999999,0,0.0,0,0,0.0,0.0
1997,1,1,6,25,?9?9?9?9E0?9?9?9*9*9?9?9?9?9?9?9*9?9*9*9?9*9,32.57,23.49,64.2,0,0,0,0,0,0.5,0,0,9999,9999,9,999999999,0,0.0,0,0,0.0,0.0
1997,1,1,6,26,?9?9?9?9E0?9?9?9*9*9?9?9?9?9?9?9*9?9*9*9?9*9,32.62,23.49,64.2,0,0,0,0,0,0.5,0,0,9999,9999,9,999999999,0,0.0,0,0,0.0,0.0
1997,1,1,6,27,?9?9?9?9E0?9?9?9*9*9?9?9?9?9?9?9*9?9*9*9?9*9,32.73,23.49,64.2,0,0,0,0,0,0.5,0,0,9999,9999,9,999999999,0,0.0,0,0,0.0,0.0
1997,1,1,6,28,?9?9?9?9E0?9?9?9*9*9?9?9?9?9?9?9*9?9*9*9?9*9,32.85,23.49,64.2,0,0,0,0,0,0.5,0,0,9999,9999,9,999999999,0,0.0,0,0,0.0,0.0
1997,1,1,6,29,?9?9?9?9E0?9?9?9*9*9?9?9?9?9?9?9*9?9*9*9?9*9,32.66,23.49,64.2,0,0,0,0,0,0.5,0,0,9999,9999,9,999999999,0,0.0,0,0,0.0,0.0
1997,1,1,6,30,?9?9?9?9E0?9?9?9*9*9?9?9?9?9?9?9*9?9*9*9?9*9,33.01,23.49,64.2,0,0,0,0,0,0.5,0,0,9999,9999,9,999999999,0,0.0,0,0,0.0,0.0
1997,1,1,6,31,?9?9?9?9E0?9?9?9*9*9?9?9?9?9?9?9*9?9*9*9?9*9,33.16,23.49,64.2,0,0,0,0,0,0.5,0,0,9999,9999,9,999999999,0,0.0,0,0,0.0,0.0
1997,1,1,6,32,?9?9?9?9E0?9?9?9*9*9?9?9?9?9?9?9*9?9*9*9?9*9,33.13,23.49,64.2,0,0,0,0,0,0.5,0,0,9999,9999,9,999999999,0,0.0,0,0,0.0,0.0
1997,1,1,6,33,?9?9?9?9E0?9?9?9*9*9?9?9?9?9?9?9*9?9*9*9?9*9,33.18,23.49,64.2,0,0,0,0,0,0.5,0,0,9999,9999,9,999999999,0,0.0,0,0,0.0,0.0
1997,1,1,6,34,?9?9?9?9E0?9?9?9*9*9?9?9?9?9?9?9*9?9*9*9?9*9,33.24,23.49,64.2,0,0,0,0,0,0.5,0,0,9999,9999,9,999999999,0,0.0,0,0,0.0,0.0
1997,1,1,6,35,?9?9?9?9E0?9?9?9*9*9?9?9?9?9?9?9*9?9*9*9?9*9,33.11,23.49,64.2,0,0,0,0,0,0.5,0,0,9999,9999,9,999999999,0,0.0,0,0,0.0,0.0
1997,1,1,6,36,?9?9?9?9E0?9?9?9*9*9?9?9?9?9?9?9*9?9*9*9?9*9,33.16,23.49,64.2,0,0,0,0,0,0.5,0,0,9999,9999,9,999999999,0,0.0,0,0,0.0,0.0
1997,1,1,6,37,?9?9?9?9E0?9?9?9*9*9?9?9?9?9?9?9*9?9*9*9?9*9,33.23,23.49,64.2,0,0,0,0,0,0.5,0,0,9999,9999,9,999999999,0,0.0,0,0,0.0,0.0
1997,1,1,6,38,?9?9?9?9E0?9?9?9*9*9?9?9?9?9?9?9*9?9*9*9?9*9,33.30,23.49,64.2,0,0,0,0,0,0.5,0,0,9999,9999,9,999999999,0,0.0,0,0,0.0,0.0
1997,1,1,6,39,?9?9?9?9E0?9?9?9*9*9?9?9?9?9?9?9*9?9*9*9?9*9,33.36,23.49,64.2,0,0,0,0,0,0.5,0,0,9999,9999,9,999999999,0,0.0,0,0,0.0,0.0
1997,1,1,6,40,?9?9?9?9E0?9?9?9*9*9?9?9?9?9?9?9*9?9*9*9?9*9,33.28,23.49,64.2,0,0,0,0,0,0.5,0,0,9999,9999,9,999999999,0,0.0,0,0,0.0,0.0
1997,1,1,6,41,?9?9?9?9E0?9?9?9*9*9?9?9?9?9?9?9*9?9*9*9?9*9,33.18,23.49,64.2,0,0,0,0,0,0.5,0,0,9999,9999,9,999999999,0,0.0,0,0,0.0,0.0
1997,1,1,6,42,?9?9?9?9E0?9?9?9*9*9?9?9?9?9?9?9*9?9*9*9?9*9,33.32,23.49,64.2,0,0,0,0,0,0.5,0,0,9999,9999,9,999999999,0,0.0,0,0,0.0,0.0
1997,1,1,6,43,?9?9?9?9E0?9?9?9*9*9?9?9?9?9?9?9*9?9*9*9?9*9,33.40,23.49,64.2,0,0,0,0,0,0.5,0,0,9999,9999,9,999999999,0,0.0,0,0,0.0,0.0
1997,1,1,6,44,?9?9?9?9E0?9?9?9*9*9?9?9?9?9?9?9*9?9*9*9?9*9,32.94,23.49,64.2,0,0,0,0,0,0.5,0,0,9999,9999,9,999999999,0,0.0,0,0,0.0,0.0
1997,1,1,6,45,?9?9?9?9E0?9?9?9*9*9?9?9?9?9?9?9*9?9*9*9?9*9,30.46,23.49,64.2,0,0,0,0,0,0.5,0,0,9999,9999,9,999999999,0,0.0,0,0,0.0,0.0
1997,1,1,6,46,?9?9?9?9E0?9?9?9*9*9?9?9?9?9?9?9*9?9*9*9?9*9,30.48,23.49,64.2,0,0,0,0,0,0.5,0,0,9999,9999,9,999999999,0,0.0,0,0,0.0,0.0
1997,1,1,6,47,?9?9?9?9E0?9?9?9*9*9?9?9?9?9?9?9*9?9*9*9?9*9,30.54,23.49,64.2,0,0,0,0,0,0.5,0,0,9999,9999,9,999999999,0,0.0,0,0,0.0,0.0
1997,1,1,6,48,?9?9?9?9E0?9?9?9*9*9?9?9?9?9?9?9*9?9*9*9?9*9,30.51,23.49,64.2,0,0,0,0,0,0.5,0,0,9999,9999,9,999999999,0,0.0,0,0,0.0,0.0
1997,1,1,6,49,?9?9?9?9E0?9?9?9*9*9?9?9?9?9?9?9*9?9*9*9?9*9,30.44,23.49,64.2,0,0,0,0,0,0.5,0,0,9999,9999,9,999999999,0,0.0,0,0,0.0,0.0
1997,1,1,6,50,?9?9?9?9E0?9?9?9*9*9?9?9?9?9?9?9*9?9*9*9?9*9,30.37,23.49,64.2,0,0,0,0,0,0.5,0,0,9999,9999,9,999999999,0,0.0,0,0,0.0,0.0
1997,1,1,6,51,?9?9?9?9E0?9?9?9*9*9?9?9?9?9?9?9*9?9*9*9?9*9,30.49,23.49,64.2,0,0,0,0,0,0.5,0,0,9999,9999,9,999999999,0,0.0,0,0,0.0,0.0
1997,1,1,6,52,?9?9?9?9E0?9?9?9*9*9?9?9?9?9?9?9*9?9*9*9?9*9,30.54,23.49,64.2,0,0,0,0,0,0.5,0,0,9999,9999,9,999999999,0,0.0,0,0,0.0,0.0
1997,1,1,6,53,?9?9?9?9E0?9?9?9*9*9?9?9?9?9?9?9*9?9*9*9?9*9,30.58,23.49,64.2,0,0,0,0,0,0.5,0,0,9999,9999,9,999999999,0,0.0,0,0,0.0,0.0
1997,1,1,6,54,?9?9?9?9E0?9?9?9*9*9?9?9?9?9?9?9*9?9*9*9?9*9,30.58,23.49,64.2,0,0,0,0,0,0.5,0,0,9999,9999,9,999999999,0,0.0,0,0,0.0,0.0
1997,1,1,6,55,?9?9?9?9E0?9?9?9*9*9?9?9?9?9?9?9*9?9*9*9?9*9,30.66,23.49,64.2,0,0,0,0,0,0.5,0,0,9999,9999,9,999999999,0,0.0,0,0,0.0,0.0
1997,1,1,6,56,?9?9?9?9E0?9?9?9*9*9?9?9?9?9?9?9*9?9*9*9?9*9,30.58,23.49,64.2,0,0,0,0,0,0.5,0,0,9999,9999,9,999999999,0,0.0,0,0,0.0,0.0
1997,1,1,6,57,?9?9?9?9E0?9?9?9*9*9?9?9?9?9?9?9*9?9*9*9?9*9,30.56,23.49,64.2,0,0,0,0,0,0.5,0,0,9999,9999,9,999999999,0,0.0,0,0,0.0,0.0
1997,1,1,6,58,?9?9?9?9E0?9?9?9*9*9?9?9?9?9?9?9*9?9*9*9?9*9,30.50,23.49,64.2,0,0,0,0,0,0.5,0,0,9999,9999,9,999999999,0,0.0,0,0,0.0,0.0
1997,1,1,6,59,?9?9?9?9E0?9?9?9*9*9?9?9?9?9?9?9*9?9*9*9?9*9,31.97,23.49,64.2,0,0,0,0,0,0.5,0,0,9999,9999,9,999999999,0,0.0,0,0,0.0,0.0
1997,1,1,6,60,?9?9?9?9E0?9?9?9*9*9?9?9?9?9?9?9*9?9*9*9?9*9,32.72,23.49,64.2,0,0,0,0,0,0.5,0,0,9999,9999,9,999999999,0,0.0,0,0,0.0,0.0
1997,1,1,7,1,?9?9?9?9E0?9?9?9*9*9?9?9?9?9?9?9*9?9*9*9?9*9,32.67,23.49,64.2,0,0,0,0,0,0.5,0,0,9999,9999,9,999999999,0,0.0,0,0,0.0,0.0
1997,1,1,7,2,?9?9?9?9E0?9?9?9*9*9?9?9?9?9?9?9*9?9*9*9?9*9,32.74,23.49,64.2,0,0,0,0,0,0.5,0,0,9999,9999,9,999999999,0,0.0,0,0,0.0,0.0
1997,1,1,7,3,?9?9?9?9E0?9?9?9*9*9?9?9?9?9?9?9*9?9*9*9?9*9,32.54,23.49,64.2,0,0,0,0,0,0.5,0,0,9999,9999,9,999999999,0,0.0,0,0,0.0,0.0
1997,1,1,7,4,?9?9?9?9E0?9?9?9*9*9?9?9?9?9?9?9*9?9*9*9?9*9,32.55,23.49,64.2,0,0,0,0,0,0.5,0,0,9999,9999,9,999999999,0,0.0,0,0,0.0,0.0
1997,1,1,7,5,?9?9?9?9E0?9?9?9*9*9?9?9?9?9?9?9*9?9*9*9?9*9,32.58,23.49,64.2,0,0,0,0,0,0.5,0,0,9999,9999,9,999999999,0,0.0,0,0,0.0,0.0
1997,1,1,7,6,?9?9?9?9E0?9?9?9*9*9?9?9?9?9?9?9*9?9*9*9?9*9,32.50,23.49,64.2,0,0,0,0,0,0.5,0,0,9999,9999,9,999999999,0,0.0,0,0,0.0,0.0
1997,1,1,7,7,?9?9?9?9E0?9?9?9*9*9?9?9?9?9?9?9*9?9*9*9?9*9,32.64,23.49,64.2,0,0,0,0,0,0.5,0,0,9999,9999,9,999999999,0,0.0,0,0,0.0,0.0
1997,1,1,7,8,?9?9?9?9E0?9?9?9*9*9?9?9?9?9?9?9*9?9*9*9?9*9,32.55,23.49,64.2,0,0,0,0,0,0.5,0,0,9999,9999,9,999999999,0,0.0,0,0,0.0,0.0
1997,1,1,7,9,?9?9?9?9E0?9?9?9*9*9?9?9?9?9?9?9*9?9*9*9?9*9,32.61,23.49,64.2,0,0,0,0,0,0.5,0,0,9999,9999,9,999999999,0,0.0,0,0,0.0,0.0
1997,1,1,7,10,?9?9?9?9E0?9?9?9*9*9?9?9?9?9?9?9*9?9*9*9?9*9,32.82,23.49,64.2,0,0,0,0,0,0.5,0,0,9999,9999,9,999999999,0,0.0,0,0,0.0,0.0
1997,1,1,7,11,?9?9?9?9E0?9?9?9*9*9?9?9?9?9?9?9*9?9*9*9?9*9,32.72,23.49,64.2,0,0,0,0,0,0.5,0,0,9999,9999,9,999999999,0,0.0,0,0,0.0,0.0
1997,1,1,7,12,?9?9?9?9E0?9?9?9*9*9?9?9?9?9?9?9*9?9*9*9?9*9,32.71,23.49,64.2,0,0,0,0,0,0.5,0,0,9999,9999,9,999999999,0,0.0,0,0,0.0,0.0
1997,1,1,7,13,?9?9?9?9E0?9?9?9*9*9?9?9?9?9?9?9*9?9*9*9?9*9,32.67,23.49,64.2,0,0,0,0,0,0.5,0,0,9999,9999,9,999999999,0,0.0,0,0,0.0,0.0
1997,1,1,7,14,?9?9?9?9E0?9?9?9*9*9?9?9?9?9?9?9*9?9*9*9?9*9,32.73,23.49,64.2,0,0,0,0,0,0.5,0,0,9999,9999,9,999999999,0,0.0,0,0,0.0,0.0
1997,1,1,7,15,?9?9?9?9E0?9?9?9*9*9?9?9?9?9?9?9*9?9*9*9?9*9,32.76,23.49,64.2,0,0,0,0,0,0.5,0,0,9999,9999,9,999999999,0,0.0,0,0,0.0,0.0
1997,1,1,7,16,?9?9?9?9E0?9?9?9*9*9?9?9?9?9?9?9*9?9*9*9?9*9,33.71,23.49,64.2,0,0,0,0,0,0.5,0,0,9999,9999,9,999999999,0,0.0,0,0,0.0,0.0
1997,1,1,7,17,?9?9?9?9E0?9?9?9*9*9?9?9?9?9?9?9*9?9*9*9?9*9,33.92,23.49,64.2,0,0,0,0,0,0.5,0,0,9999,9999,9,999999999,0,0.0,0,0,0.0,0.0
1997,1,1,7,18,?9?9?9?9E0?9?9?9*9*9?9?9?9?9?9?9*9?9*9*9?9*9,34.03,23.49,64.2,0,0,0,0,0,0.5,0,0,9999,9999,9,999999999,0,0.0,0,0,0.0,0.0
1997,1,1,7,19,?9?9?9?9E0?9?9?9*9*9?9?9?9?9?9?9*9?9*9*9?9*9,34.02,23.49,64.2,0,0,0,0,0,0.5,0,0,9999,9999,9,999999999,0,0.0,0,0,0.0,0.0
1997,1,1,7,20,?9?9?9?9E0?9?9?9*9*9?9?9?9?9?9?9*9?9*9*9?9*9,33.85,23.49,64.2,0,0,0,0,0,0.5,0,0,9999,9999,9,999999999,0,0.0,0,0,0.0,0.0
1997,1,1,7,21,?9?9?9?9E0?9?9?9*9*9?9?9?9?9?9?9*9?9*9*9?9*9,33.81,23.49,64.2,0,0,0,0,0,0.5,0,0,9999,9999,9,999999999,0,0.0,0,0,0.0,0.0
1997,1,1,7,22,?9?9?9?9E0?9?9?9*9*9?9?9?9?9?9?9*9?9*9*9?9*9,33.72,23.49,64.2,0,0,0,0,0,0.5,0,0,9999,9999,9,999999999,0,0.0,0,0,0.0,0.0
1997,1,1,7,23,?9?9?9?9E0?9?9?9*9*9?9?9?9?9?9?9*9?9*9*9?9*9,33.69,23.49,64.2,0,0,0,0,0,0.5,0,0,9999,9999,9,999999999,0,0.0,0,0,0.0,0.0
1997,1,1,7,24,?9?9?9?9E0?9?9?9*9*9?9?9?9?9?9?9*9?9*9*9?9*9,33.61,23.49,64.2,0,0,0,0,0,0.5,0,0,9999,9999,9,999999999,0,0.0,0,0,0.0,0.0
1997,1,1,7,25,?9?9?9?9E0?9?9?9*9*9?9?9?9?9?9?9*9?9*9*9?9*9,33.66,23.49,64.2,0,0,0,0,0,0.5,0,0,9999,9999,9,999999999,0,0.0,0,0,0.0,0.0
1997,1,1,7,26,?9?9?9?9E0?9?9?9*9*9?9?9?9?9?9?9*9?9*9*9?9*9,33.76,23.49,64.2,0,0,0,0,0,0.5,0,0,9999,9999,9,999999999,0,0.0,0,0,0.0,0.0
1997,1,1,7,27,?9?9?9?9E0?9?9?9*9*9?9?9?9?9?9?9*9?9*9*9?9*9,33.72,23.49,64.2,0,0,0,0,0,0.5,0,0,9999,9999,9,999999999,0,0.0,0,0,0.0,0.0
1997,1,1,7,28,?9?9?9?9E0?9?9?9*9*9?9?9?9?9?9?9*9?9*9*9?9*9,33.86,23.49,64.2,0,0,0,0,0,0.5,0,0,9999,9999,9,999999999,0,0.0,0,0,0.0,0.0
1997,1,1,7,29,?9?9?9?9E0?9?9?9*9*9?9?9?9?9?9?9*9?9*9*9?9*9,33.82,23.49,64.2,0,0,0,0,0,0.5,0,0,9999,9999,9,999999999,0,0.0,0,0,0.0,0.0
1997,1,1,7,30,?9?9?9?9E0?9?9?9*9*9?9?9?9?9?9?9*9?9*9*9?9*9,33.96,23.49,64.2,0,0,0,0,0,0.5,0,0,9999,9999,9,999999999,0,0.0,0,0,0.0,0.0
1997,1,1,7,31,?9?9?9?9E0?9?9?9*9*9?9?9?9?9?9?9*9?9*9*9?9*9,34.05,23.49,64.2,0,0,0,0,0,0.5,0,0,9999,9999,9,999999999,0,0.0,0,0,0.0,0.0
1997,1,1,7,32,?9?9?9?9E0?9?9?9*9*9?9?9?9?9?9?9*9?9*9*9?9*9,33.86,23.49,64.2,0,0,0,0,0,0.5,0,0,9999,9999,9,999999999,0,0.0,0,0,0.0,0.0
1997,1,1,7,33,?9?9?9?9E0?9?9?9*9*9?9?9?9?9?9?9*9?9*9*9?9*9,32.86,23.49,64.2,0,0,0,0,0,0.5,0,0,9999,9999,9,999999999,0,0.0,0,0,0.0,0.0
1997,1,1,7,34,?9?9?9?9E0?9?9?9*9*9?9?9?9?9?9?9*9?9*9*9?9*9,32.92,23.49,64.2,0,0,0,0,0,0.5,0,0,9999,9999,9,999999999,0,0.0,0,0,0.0,0.0
1997,1,1,7,35,?9?9?9?9E0?9?9?9*9*9?9?9?9?9?9?9*9?9*9*9?9*9,32.91,23.49,64.2,0,0,0,0,0,0.5,0,0,9999,9999,9,999999999,0,0.0,0,0,0.0,0.0
1997,1,1,7,36,?9?9?9?9E0?9?9?9*9*9?9?9?9?9?9?9*9?9*9*9?9*9,32.92,23.49,64.2,0,0,0,0,0,0.5,0,0,9999,9999,9,999999999,0,0.0,0,0,0.0,0.0
1997,1,1,7,37,?9?9?9?9E0?9?9?9*9*9?9?9?9?9?9?9*9?9*9*9?9*9,32.92,23.49,64.2,0,0,0,0,0,0.5,0,0,9999,9999,9,999999999,0,0.0,0,0,0.0,0.0
1997,1,1,7,38,?9?9?9?9E0?9?9?9*9*9?9?9?9?9?9?9*9?9*9*9?9*9,32.93,23.49,64.2,0,0,0,0,0,0.5,0,0,9999,9999,9,999999999,0,0.0,0,0,0.0,0.0
1997,1,1,7,39,?9?9?9?9E0?9?9?9*9*9?9?9?9?9?9?9*9?9*9*9?9*9,32.82,23.49,64.2,0,0,0,0,0,0.5,0,0,9999,9999,9,999999999,0,0.0,0,0,0.0,0.0
1997,1,1,7,40,?9?9?9?9E0?9?9?9*9*9?9?9?9?9?9?9*9?9*9*9?9*9,32.89,23.49,64.2,0,0,0,0,0,0.5,0,0,9999,9999,9,999999999,0,0.0,0,0,0.0,0.0
1997,1,1,7,41,?9?9?9?9E0?9?9?9*9*9?9?9?9?9?9?9*9?9*9*9?9*9,32.91,23.49,64.2,0,0,0,0,0,0.5,0,0,9999,9999,9,999999999,0,0.0,0,0,0.0,0.0
1997,1,1,7,42,?9?9?9?9E0?9?9?9*9*9?9?9?9?9?9?9*9?9*9*9?9*9,32.96,23.49,64.2,0,0,0,0,0,0.5,0,0,9999,9999,9,999999999,0,0.0,0,0,0.0,0.0
1997,1,1,7,43,?9?9?9?9E0?9?9?9*9*9?9?9?9?9?9?9*9?9*9*9?9*9,33.00,23.49,64.2,0,0,0,0,0,0.5,0,0,9999,9999,9,999999999,0,0.0,0,0,0.0,0.0
1997,1,1,7,44,?9?9?9?9E0?9?9?9*9*9?9?9?9?9?9?9*9?9*9*9?9*9,32.91,23.49,64.2,0,0,0,0,0,0.5,0,0,9999,9999,9,999999999,0,0.0,0,0,0.0,0.0
1997,1,1,7,45,?9?9?9?9E0?9?9?9*9*9?9?9?9?9?9?9*9?9*9*9?9*9,32.80,23.49,64.2,0,0,0,0,0,0.5,0,0,9999,9999,9,999999999,0,0.0,0,0,0.0,0.0
1997,1,1,7,46,?9?9?9?9E0?9?9?9*9*9?9?9?9?9?9?9*9?9*9*9?9*9,32.89,23.49,64.2,0,0,0,0,0,0.5,0,0,9999,9999,9,999999999,0,0.0,0,0,0.0,0.0
1997,1,1,7,47,?9?9?9?9E0?9?9?9*9*9?9?9?9?9?9?9*9?9*9*9?9*9,31.01,23.49,64.2,0,0,0,0,0,0.5,0,0,9999,9999,9,999999999,0,0.0,0,0,0.0,0.0
1997,1,1,7,48,?9?9?9?9E0?9?9?9*9*9?9?9?9?9?9?9*9?9*9*9?9*9,30.51,23.49,64.2,0,0,0,0,0,0.5,0,0,9999,9999,9,999999999,0,0.0,0,0,0.0,0.0
1997,1,1,7,49,?9?9?9?9E0?9?9?9*9*9?9?9?9?9?9?9*9?9*9*9?9*9,30.52,23.49,64.2,0,0,0,0,0,0.5,0,0,9999,9999,9,999999999,0,0.0,0,0,0.0,0.0
1997,1,1,7,50,?9?9?9?9E0?9?9?9*9*9?9?9?9?9?9?9*9?9*9*9?9*9,30.61,23.49,64.2,0,0,0,0,0,0.5,0,0,9999,9999,9,999999999,0,0.0,0,0,0.0,0.0
1997,1,1,7,51,?9?9?9?9E0?9?9?9*9*9?9?9?9?9?9?9*9?9*9*9?9*9,30.63,23.49,64.2,0,0,0,0,0,0.5,0,0,9999,9999,9,999999999,0,0.0,0,0,0.0,0.0
1997,1,1,7,52,?9?9?9?9E0?9?9?9*9*9?9?9?9?9?9?9*9?9*9*9?9*9,30.59,23.49,64.2,0,0,0,0,0,0.5,0,0,9999,9999,9,999999999,0,0.0,0,0,0.0,0.0
1997,1,1,7,53,?9?9?9?9E0?9?9?9*9*9?9?9?9?9?9?9*9?9*9*9?9*9,30.66,23.49,64.2,0,0,0,0,0,0.5,0,0,9999,9999,9,999999999,0,0.0,0,0,0.0,0.0
1997,1,1,7,54,?9?9?9?9E0?9?9?9*9*9?9?9?9?9?9?9*9?9*9*9?9*9,30.67,23.49,64.2,0,0,0,0,0,0.5,0,0,9999,9999,9,999999999,0,0.0,0,0,0.0,0.0
1997,1,1,7,55,?9?9?9?9E0?9?9?9*9*9?9?9?9?9?9?9*9?9*9*9?9*9,30.68,23.49,64.2,0,0,0,0,0,0.5,0,0,9999,9999,9,999999999,0,0.0,0,0,0.0,0.0
1997,1,1,7,56,?9?9?9?9E0?9?9?9*9*9?9?9?9?9?9?9*9?9*9*9?9*9,30.65,23.49,64.2,0,0,0,0,0,0.5,0,0,9999,9999,9,999999999,0,0.0,0,0,0.0,0.0
1997,1,1,7,57,?9?9?9?9E0?9?9?9*9*9?9?9?9?9?9?9*9?9*9*9?9*9,30.60,23.49,64.2,0,0,0,0,0,0.5,0,0,9999,9999,9,999999999,0,0.0,0,0,0.0,0.0
1997,1,1,7,58,?9?9?9?9E0?9?9?9*9*9?9?9?9?9?9?9*9?9*9*9?9*9,30.61,23.49,64.2,0,0,0,0,0,0.5,0,0,9999,9999,9,999999999,0,0.0,0,0,0.0,0.0
1997,1,1,7,59,?9?9?9?9E0?9?9?9*9*9?9?9?9?9?9?9*9?9*9*9?9*9,30.65,23.49,64.2,0,0,0,0,0,0.5,0,0,9999,9999,9,999999999,0,0.0,0,0,0.0,0.0
1997,1,1,7,60,?9?9?9?9E0?9?9?9*9*9?9?9?9?9?9?9*9?9*9*9?9*9,30.56,23.49,64.2,0,0,0,0,0,0.5,0,0,9999,9999,9,999999999,0,0.0,0,0,0.0,0.0
1997,1,1,8,1,?9?9?9?9E0?9?9?9*9*9?9?9?9?9?9?9*9?9*9*9?9*9,30.68,23.49,64.2,0,0,0,0,0,0.5,0,0,9999,9999,9,999999999,0,0.0,0,0,0.0,0.0
1997,1,1,8,2,?9?9?9?9E0?9?9?9*9*9?9?9?9?9?9?9*9?9*9*9?9*9,30.68,23.49,64.2,0,0,0,0,0,0.5,0,0,9999,9999,9,999999999,0,0.0,0,0,0.0,0.0
1997,1,1,8,3,?9?9?9?9E0?9?9?9*9*9?9?9?9?9?9?9*9?9*9*9?9*9,30.68,23.49,64.2,0,0,0,0,0,0.5,0,0,9999,9999,9,999999999,0,0.0,0,0,0.0,0.0
1997,1,1,8,4,?9?9?9?9E0?9?9?9*9*9?9?9?9?9?9?9*9?9*9*9?9*9,30.68,23.49,64.2,0,0,0,0,0,0.5,0,0,9999,9999,9,999999999,0,0.0,0,0,0.0,0.0
1997,1,1,8,5,?9?9?9?9E0?9?9?9*9*9?9?9?9?9?9?9*9?9*9*9?9*9,30.68,23.49,64.2,0,0,0,0,0,0.5,0,0,9999,9999,9,999999999,0,0.0,0,0,0.0,0.0
1997,1,1,8,6,?9?9?9?9E0?9?9?9*9*9?9?9?9?9?9?9*9?9*9*9?9*9,30.68,23.49,64.2,0,0,0,0,0,0.5,0,0,9999,9999,9,999999999,0,0.0,0,0,0.0,0.0
1997,1,1,8,7,?9?9?9?9E0?9?9?9*9*9?9?9?9?9?9?9*9?9*9*9?9*9,30.68,23.49,64.2,0,0,0,0,0,0.5,0,0,9999,9999,9,999999999,0,0.0,0,0,0.0,0.0
1997,1,1,8,8,?9?9?9?9E0?9?9?9*9*9?9?9?9?9?9?9*9?9*9*9?9*9,30.68,23.49,64.2,0,0,0,0,0,0.5,0,0,9999,9999,9,999999999,0,0.0,0,0,0.0,0.0
1997,1,1,8,9,?9?9?9?9E0?9?9?9*9*9?9?9?9?9?9?9*9?9*9*9?9*9,30.68,23.49,64.2,0,0,0,0,0,0.5,0,0,9999,9999,9,999999999,0,0.0,0,0,0.0,0.0
1997,1,1,8,10,?9?9?9?9E0?9?9?9*9*9?9?9?9?9?9?9*9?9*9*9?9*9,30.68,23.49,64.2,0,0,0,0,0,0.5,0,0,9999,9999,9,999999999,0,0.0,0,0,0.0,0.0
1997,1,1,8,11,?9?9?9?9E0?9?9?9*9*9?9?9?9?9?9?9*9?9*9*9?9*9,30.68,23.49,64.2,0,0,0,0,0,0.5,0,0,9999,9999,9,999999999,0,0.0,0,0,0.0,0.0
1997,1,1,8,12,?9?9?9?9E0?9?9?9*9*9?9?9?9?9?9?9*9?9*9*9?9*9,30.68,23.49,64.2,0,0,0,0,0,0.5,0,0,9999,9999,9,999999999,0,0.0,0,0,0.0,0.0
1997,1,1,8,13,?9?9?9?9E0?9?9?9*9*9?9?9?9?9?9?9*9?9*9*9?9*9,30.68,23.49,64.2,0,0,0,0,0,0.5,0,0,9999,9999,9,999999999,0,0.0,0,0,0.0,0.0
1997,1,1,8,14,?9?9?9?9E0?9?9?9*9*9?9?9?9?9?9?9*9?9*9*9?9*9,30.68,23.49,64.2,0,0,0,0,0,0.5,0,0,9999,9999,9,999999999,0,0.0,0,0,0.0,0.0
1997,1,1,8,15,?9?9?9?9E0?9?9?9*9*9?9?9?9?9?9?9*9?9*9*9?9*9,30.68,23.49,64.2,0,0,0,0,0,0.5,0,0,9999,9999,9,999999999,0,0.0,0,0,0.0,0.0
1997,1,1,8,16,?9?9?9?9E0?9?9?9*9*9?9?9?9?9?9?9*9?9*9*9?9*9,30.68,23.49,64.2,0,0,0,0,0,0.5,0,0,9999,9999,9,999999999,0,0.0,0,0,0.0,0.0
1997,1,1,8,17,?9?9?9?9E0?9?9?9*9*9?9?9?9?9?9?9*9?9*9*9?9*9,30.68,23.49,64.2,0,0,0,0,0,0.5,0,0,9999,9999,9,999999999,0,0.0,0,0,0.0,0.0
1997,1,1,8,18,?9?9?9?9E0?9?9?9*9*9?9?9?9?9?9?9*9?9*9*9?9*9,30.68,23.49,64.2,0,0,0,0,0,0.5,0,0,9999,9999,9,999999999,0,0.0,0,0,0.0,0.0
1997,1,1,8,19,?9?9?9?9E0?9?9?9*9*9?9?9?9?9?9?9*9?9*9*9?9*9,30.68,23.49,64.2,0,0,0,0,0,0.5,0,0,9999,9999,9,999999999,0,0.0,0,0,0.0,0.0
1997,1,1,8,20,?9?9?9?9E0?9?9?9*9*9?9?9?9?9?9?9*9?9*9*9?9*9,30.68,23.49,64.2,0,0,0,0,0,0.5,0,0,9999,9999,9,999999999,0,0.0,0,0,0.0,0.0
1997,1,1,8,21,?9?9?9?9E0?9?9?9*9*9?9?9?9?9?9?9*9?9*9*9?9*9,30.68,23.49,64.2,0,0,0,0,0,0.5,0,0,9999,9999,9,999999999,0,0.0,0,0,0.0,0.0
1997,1,1,8,22,?9?9?9?9E0?9?9?9*9*9?9?9?9?9?9?9*9?9*9*9?9*9,30.68,23.49,64.2,0,0,0,0,0,0.5,0,0,9999,9999,9,999999999,0,0.0,0,0,0.0,0.0
1997,1,1,8,23,?9?9?9?9E0?9?9?9*9*9?9?9?9?9?9?9*9?9*9*9?9*9,30.68,23.49,64.2,0,0,0,0,0,0.5,0,0,9999,9999,9,999999999,0,0.0,0,0,0.0,0.0
1997,1,1,8,24,?9?9?9?9E0?9?9?9*9*9?9?9?9?9?9?9*9?9*9*9?9*9,30.68,23.49,64.2,0,0,0,0,0,0.5,0,0,9999,9999,9,999999999,0,0.0,0,0,0.0,0.0
1997,1,1,8,25,?9?9?9?9E0?9?9?9*9*9?9?9?9?9?9?9*9?9*9*9?9*9,30.68,23.49,64.2,0,0,0,0,0,0.5,0,0,9999,9999,9,999999999,0,0.0,0,0,0.0,0.0
1997,1,1,8,26,?9?9?9?9E0?9?9?9*9*9?9?9?9?9?9?9*9?9*9*9?9*9,30.68,23.49,64.2,0,0,0,0,0,0.5,0,0,9999,9999,9,999999999,0,0.0,0,0,0.0,0.0
1997,1,1,8,27,?9?9?9?9E0?9?9?9*9*9?9?9?9?9?9?9*9?9*9*9?9*9,30.68,23.49,64.2,0,0,0,0,0,0.5,0,0,9999,9999,9,999999999,0,0.0,0,0,0.0,0.0
1997,1,1,8,28,?9?9?9?9E0?9?9?9*9*9?9?9?9?9?9?9*9?9*9*9?9*9,30.68,23.49,64.2,0,0,0,0,0,0.5,0,0,9999,9999,9,999999999,0,0.0,0,0,0.0,0.0
1997,1,1,8,29,?9?9?9?9E0?9?9?9*9*9?9?9?9?9?9?9*9?9*9*9?9*9,30.68,23.49,64.2,0,0,0,0,0,0.5,0,0,9999,9999,9,999999999,0,0.0,0,0,0.0,0.0
1997,1,1,8,30,?9?9?9?9E0?9?9?9*9*9?9?9?9?9?9?9*9?9*9*9?9*9,30.68,23.49,64.2,0,0,0,0,0,0.5,0,0,9999,9999,9,999999999,0,0.0,0,0,0.0,0.0
1997,1,1,8,31,?9?9?9?9E0?9?9?9*9*9?9?9?9?9?9?9*9?9*9*9?9*9,30.68,23.49,64.2,0,0,0,0,0,0.5,0,0,9999,9999,9,999999999,0,0.0,0,0,0.0,0.0
1997,1,1,8,32,?9?9?9?9E0?9?9?9*9*9?9?9?9?9?9?9*9?9*9*9?9*9,30.68,23.49,64.2,0,0,0,0,0,0.5,0,0,9999,9999,9,999999999,0,0.0,0,0,0.0,0.0
1997,1,1,8,33,?9?9?9?9E0?9?9?9*9*9?9?9?9?9?9?9*9?9*9*9?9*9,30.68,23.49,64.2,0,0,0,0,0,0.5,0,0,9999,9999,9,999999999,0,0.0,0,0,0.0,0.0
1997,1,1,8,34,?9?9?9?9E0?9?9?9*9*9?9?9?9?9?9?9*9?9*9*9?9*9,30.68,23.49,64.2,0,0,0,0,0,0.5,0,0,9999,9999,9,999999999,0,0.0,0,0,0.0,0.0
1997,1,1,8,35,?9?9?9?9E0?9?9?9*9*9?9?9?9?9?9?9*9?9*9*9?9*9,30.68,23.49,64.2,0,0,0,0,0,0.5,0,0,9999,9999,9,999999999,0,0.0,0,0,0.0,0.0
1997,1,1,8,36,?9?9?9?9E0?9?9?9*9*9?9?9?9?9?9?9*9?9*9*9?9*9,30.68,23.49,64.2,0,0,0,0,0,0.5,0,0,9999,9999,9,999999999,0,0.0,0,0,0.0,0.0
1997,1,1,8,37,?9?9?9?9E0?9?9?9*9*9?9?9?9?9?9?9*9?9*9*9?9*9,30.68,23.49,64.2,0,0,0,0,0,0.5,0,0,9999,9999,9,999999999,0,0.0,0,0,0.0,0.0
1997,1,1,8,38,?9?9?9?9E0?9?9?9*9*9?9?9?9?9?9?9*9?9*9*9?9*9,30.68,23.49,64.2,0,0,0,0,0,0.5,0,0,9999,9999,9,999999999,0,0.0,0,0,0.0,0.0
1997,1,1,8,39,?9?9?9?9E0?9?9?9*9*9?9?9?9?9?9?9*9?9*9*9?9*9,30.68,23.49,64.2,0,0,0,0,0,0.5,0,0,9999,9999,9,999999999,0,0.0,0,0,0.0,0.0
1997,1,1,8,40,?9?9?9?9E0?9?9?9*9*9?9?9?9?9?9?9*9?9*9*9?9*9,30.68,23.49,64.2,0,0,0,0,0,0.5,0,0,9999,9999,9,999999999,0,0.0,0,0,0.0,0.0
1997,1,1,8,41,?9?9?9?9E0?9?9?9*9*9?9?9?9?9?9?9*9?9*9*9?9*9,30.68,23.49,64.2,0,0,0,0,0,0.5,0,0,9999,9999,9,999999999,0,0.0,0,0,0.0,0.0
1997,1,1,8,42,?9?9?9?9E0?9?9?9*9*9?9?9?9?9?9?9*9?9*9*9?9*9,30.68,23.49,64.2,0,0,0,0,0,0.5,0,0,9999,9999,9,999999999,0,0.0,0,0,0.0,0.0
1997,1,1,8,43,?9?9?9?9E0?9?9?9*9*9?9?9?9?9?9?9*9?9*9*9?9*9,30.68,23.49,64.2,0,0,0,0,0,0.5,0,0,9999,9999,9,999999999,0,0.0,0,0,0.0,0.0
1997,1,1,8,44,?9?9?9?9E0?9?9?9*9*9?9?9?9?9?9?9*9?9*9*9?9*9,30.68,23.49,64.2,0,0,0,0,0,0.5,0,0,9999,9999,9,999999999,0,0.0,0,0,0.0,0.0
1997,1,1,8,45,?9?9?9?9E0?9?9?9*9*9?9?9?9?9?9?9*9?9*9*9?9*9,30.68,23.49,64.2,0,0,0,0,0,0.5,0,0,9999,9999,9,999999999,0,0.0,0,0,0.0,0.0
1997,1,1,8,46,?9?9?9?9E0?9?9?9*9*9?9?9?9?9?9?9*9?9*9*9?9*9,30.68,23.49,64.2,0,0,0,0,0,0.5,0,0,9999,9999,9,999999999,0,0.0,0,0,0.0,0.0
1997,1,1,8,47,?9?9?9?9E0?9?9?9*9*9?9?9?9?9?9?9*9?9*9*9?9*9,30.68,23.49,64.2,0,0,0,0,0,0.5,0,0,9999,9999,9,999999999,0,0.0,0,0,0.0,0.0
1997,1,1,8,48,?9?9?9?9E0?9?9?9*9*9?9?9?9?9?9?9*9?9*9*9?9*9,30.68,23.49,64.2,0,0,0,0,0,0.5,0,0,9999,9999,9,999999999,0,0.0,0,0,0.0,0.0
1997,1,1,8,49,?9?9?9?9E0?9?9?9*9*9?9?9?9?9?9?9*9?9*9*9?9*9,30.68,23.49,64.2,0,0,0,0,0,0.5,0,0,9999,9999,9,999999999,0,0.0,0,0,0.0,0.0
1997,1,1,8,50,?9?9?9?9E0?9?9?9*9*9?9?9?9?9?9?9*9?9*9*9?9*9,30.68,23.49,64.2,0,0,0,0,0,0.5,0,0,9999,9999,9,999999999,0,0.0,0,0,0.0,0.0
1997,1,1,8,51,?9?9?9?9E0?9?9?9*9*9?9?9?9?9?9?9*9?9*9*9?9*9,30.68,23.49,64.2,0,0,0,0,0,0.5,0,0,9999,9999,9,999999999,0,0.0,0,0,0.0,0.0
1997,1,1,8,52,?9?9?9?9E0?9?9?9*9*9?9?9?9?9?9?9*9?9*9*9?9*9,30.68,23.49,64.2,0,0,0,0,0,0.5,0,0,9999,9999,9,999999999,0,0.0,0,0,0.0,0.0
1997,1,1,8,53,?9?9?9?9E0?9?9?9*9*9?9?9?9?9?9?9*9?9*9*9?9*9,30.68,23.49,64.2,0,0,0,0,0,0.5,0,0,9999,9999,9,999999999,0,0.0,0,0,0.0,0.0
1997,1,1,8,54,?9?9?9?9E0?9?9?9*9*9?9?9?9?9?9?9*9?9*9*9?9*9,30.68,23.49,64.2,0,0,0,0,0,0.5,0,0,9999,9999,9,999999999,0,0.0,0,0,0.0,0.0
1997,1,1,8,55,?9?9?9?9E0?9?9?9*9*9?9?9?9?9?9?9*9?9*9*9?9*9,30.68,23.49,64.2,0,0,0,0,0,0.5,0,0,9999,9999,9,999999999,0,0.0,0,0,0.0,0.0
1997,1,1,8,56,?9?9?9?9E0?9?9?9*9*9?9?9?9?9?9?9*9?9*9*9?9*9,30.68,23.49,64.2,0,0,0,0,0,0.5,0,0,9999,9999,9,999999999,0,0.0,0,0,0.0,0.0
1997,1,1,8,57,?9?9?9?9E0?9?9?9*9*9?9?9?9?9?9?9*9?9*9*9?9*9,30.68,23.49,64.2,0,0,0,0,0,0.5,0,0,9999,9999,9,999999999,0,0.0,0,0,0.0,0.0
1997,1,1,8,58,?9?9?9?9E0?9?9?9*9*9?9?9?9?9?9?9*9?9*9*9?9*9,30.68,23.49,64.2,0,0,0,0,0,0.5,0,0,9999,9999,9,999999999,0,0.0,0,0,0.0,0.0
1997,1,1,8,59,?9?9?9?9E0?9?9?9*9*9?9?9?9?9?9?9*9?9*9*9?9*9,30.68,23.49,64.2,0,0,0,0,0,0.5,0,0,9999,9999,9,999999999,0,0.0,0,0,0.0,0.0
1997,1,1,8,60,?9?9?9?9E0?9?9?9*9*9?9?9?9?9?9?9*9?9*9*9?9*9,30.68,23.49,64.2,0,0,0,0,0,0.5,0,0,9999,9999,9,999999999,0,0.0,0,0,0.0,0.0
1997,1,1,9,1,?9?9?9?9E0?9?9?9*9*9?9?9?9?9?9?9*9?9*9*9?9*9,30.68,23.49,64.2,0,0,0,0,0,0.5,0,0,9999,9999,9,999999999,0,0.0,0,0,0.0,0.0
1997,1,1,9,2,?9?9?9?9E0?9?9?9*9*9?9?9?9?9?9?9*9?9*9*9?9*9,30.68,23.49,64.2,0,0,0,0,0,0.5,0,0,9999,9999,9,999999999,0,0.0,0,0,0.0,0.0
1997,1,1,9,3,?9?9?9?9E0?9?9?9*9*9?9?9?9?9?9?9*9?9*9*9?9*9,30.68,23.49,64.2,0,0,0,0,0,0.5,0,0,9999,9999,9,999999999,0,0.0,0,0,0.0,0.0
1997,1,1,9,4,?9?9?9?9E0?9?9?9*9*9?9?9?9?9?9?9*9?9*9*9?9*9,30.68,23.49,64.2,0,0,0,0,0,0.5,0,0,9999,9999,9,999999999,0,0.0,0,0,0.0,0.0
1997,1,1,9,5,?9?9?9?9E0?9?9?9*9*9?9?9?9?9?9?9*9?9*9*9?9*9,30.68,23.49,64.2,0,0,0,0,0,0.5,0,0,9999,9999,9,999999999,0,0.0,0,0,0.0,0.0
1997,1,1,9,6,?9?9?9?9E0?9?9?9*9*9?9?9?9?9?9?9*9?9*9*9?9*9,30.68,23.49,64.2,0,0,0,0,0,0.5,0,0,9999,9999,9,999999999,0,0.0,0,0,0.0,0.0
1997,1,1,9,7,?9?9?9?9E0?9?9?9*9*9?9?9?9?9?9?9*9?9*9*9?9*9,30.68,23.49,64.2,0,0,0,0,0,0.5,0,0,9999,9999,9,999999999,0,0.0,0,0,0.0,0.0
1997,1,1,9,8,?9?9?9?9E0?9?9?9*9*9?9?9?9?9?9?9*9?9*9*9?9*9,30.68,23.49,64.2,0,0,0,0,0,0.5,0,0,9999,9999,9,999999999,0,0.0,0,0,0.0,0.0
1997,1,1,9,9,?9?9?9?9E0?9?9?9*9*9?9?9?9?9?9?9*9?9*9*9?9*9,30.68,23.49,64.2,0,0,0,0,0,0.5,0,0,9999,9999,9,999999999,0,0.0,0,0,0.0,0.0
1997,1,1,9,10,?9?9?9?9E0?9?9?9*9*9?9?9?9?9?9?9*9?9*9*9?9*9,30.68,23.49,64.2,0,0,0,0,0,0.5,0,0,9999,9999,9,999999999,0,0.0,0,0,0.0,0.0
1997,1,1,9,11,?9?9?9?9E0?9?9?9*9*9?9?9?9?9?9?9*9?9*9*9?9*9,30.68,23.49,64.2,0,0,0,0,0,0.5,0,0,9999,9999,9,999999999,0,0.0,0,0,0.0,0.0
1997,1,1,9,12,?9?9?9?9E0?9?9?9*9*9?9?9?9?9?9?9*9?9*9*9?9*9,30.68,23.49,64.2,0,0,0,0,0,0.5,0,0,9999,9999,9,999999999,0,0.0,0,0,0.0,0.0
1997,1,1,9,13,?9?9?9?9E0?9?9?9*9*9?9?9?9?9?9?9*9?9*9*9?9*9,30.68,23.49,64.2,0,0,0,0,0,0.5,0,0,9999,9999,9,999999999,0,0.0,0,0,0.0,0.0
1997,1,1,9,14,?9?9?9?9E0?9?9?9*9*9?9?9?9?9?9?9*9?9*9*9?9*9,30.68,23.49,64.2,0,0,0,0,0,0.5,0,0,9999,9999,9,999999999,0,0.0,0,0,0.0,0.0
1997,1,1,9,15,?9?9?9?9E0?9?9?9*9*9?9?9?9?9?9?9*9?9*9*9?9*9,30.68,23.49,64.2,0,0,0,0,0,0.5,0,0,9999,9999,9,999999999,0,0.0,0,0,0.0,0.0
1997,1,1,9,16,?9?9?9?9E0?9?9?9*9*9?9?9?9?9?9?9*9?9*9*9?9*9,30.68,23.49,64.2,0,0,0,0,0,0.5,0,0,9999,9999,9,999999999,0,0.0,0,0,0.0,0.0
1997,1,1,9,17,?9?9?9?9E0?9?9?9*9*9?9?9?9?9?9?9*9?9*9*9?9*9,30.68,23.49,64.2,0,0,0,0,0,0.5,0,0,9999,9999,9,999999999,0,0.0,0,0,0.0,0.0
1997,1,1,9,18,?9?9?9?9E0?9?9?9*9*9?9?9?9?9?9?9*9?9*9*9?9*9,30.68,23.49,64.2,0,0,0,0,0,0.5,0,0,9999,9999,9,999999999,0,0.0,0,0,0.0,0.0
1997,1,1,9,19,?9?9?9?9E0?9?9?9*9*9?9?9?9?9?9?9*9?9*9*9?9*9,30.68,23.49,64.2,0,0,0,0,0,0.5,0,0,9999,9999,9,999999999,0,0.0,0,0,0.0,0.0
1997,1,1,9,20,?9?9?9?9E0?9?9?9*9*9?9?9?9?9?9?9*9?9*9*9?9*9,30.68,23.49,64.2,0,0,0,0,0,0.5,0,0,9999,9999,9,999999999,0,0.0,0,0,0.0,0.0
1997,1,1,9,21,?9?9?9?9E0?9?9?9*9*9?9?9?9?9?9?9*9?9*9*9?9*9,30.68,23.49,64.2,0,0,0,0,0,0.5,0,0,9999,9999,9,999999999,0,0.0,0,0,0.0,0.0
1997,1,1,9,22,?9?9?9?9E0?9?9?9*9*9?9?9?9?9?9?9*9?9*9*9?9*9,30.68,23.49,64.2,0,0,0,0,0,0.5,0,0,9999,9999,9,999999999,0,0.0,0,0,0.0,0.0
1997,1,1,9,23,?9?9?9?9E0?9?9?9*9*9?9?9?9?9?9?9*9?9*9*9?9*9,30.68,23.49,64.2,0,0,0,0,0,0.5,0,0,9999,9999,9,999999999,0,0.0,0,0,0.0,0.0
1997,1,1,9,24,?9?9?9?9E0?9?9?9*9*9?9?9?9?9?9?9*9?9*9*9?9*9,30.68,23.49,64.2,0,0,0,0,0,0.5,0,0,9999,9999,9,999999999,0,0.0,0,0,0.0,0.0
1997,1,1,9,25,?9?9?9?9E0?9?9?9*9*9?9?9?9?9?9?9*9?9*9*9?9*9,30.68,23.49,64.2,0,0,0,0,0,0.5,0,0,9999,9999,9,999999999,0,0.0,0,0,0.0,0.0
1997,1,1,9,26,?9?9?9?9E0?9?9?9*9*9?9?9?9?9?9?9*9?9*9*9?9*9,30.68,23.49,64.2,0,0,0,0,0,0.5,0,0,9999,9999,9,999999999,0,0.0,0,0,0.0,0.0
1997,1,1,9,27,?9?9?9?9E0?9?9?9*9*9?9?9?9?9?9?9*9?9*9*9?9*9,30.68,23.49,64.2,0,0,0,0,0,0.5,0,0,9999,9999,9,999999999,0,0.0,0,0,0.0,0.0
1997,1,1,9,28,?9?9?9?9E0?9?9?9*9*9?9?9?9?9?9?9*9?9*9*9?9*9,30.68,23.49,64.2,0,0,0,0,0,0.5,0,0,9999,9999,9,999999999,0,0.0,0,0,0.0,0.0
1997,1,1,9,29,?9?9?9?9E0?9?9?9*9*9?9?9?9?9?9?9*9?9*9*9?9*9,30.68,23.49,64.2,0,0,0,0,0,0.5,0,0,9999,9999,9,999999999,0,0.0,0,0,0.0,0.0
1997,1,1,9,30,?9?9?9?9E0?9?9?9*9*9?9?9?9?9?9?9*9?9*9*9?9*9,30.68,23.49,64.2,0,0,0,0,0,0.5,0,0,9999,9999,9,999999999,0,0.0,0,0,0.0,0.0
1997,1,1,9,31,?9?9?9?9E0?9?9?9*9*9?9?9?9?9?9?9*9?9*9*9?9*9,30.68,23.49,64.2,0,0,0,0,0,0.5,0,0,9999,9999,9,999999999,0,0.0,0,0,0.0,0.0
1997,1,1,9,32,?9?9?9?9E0?9?9?9*9*9?9?9?9?9?9?9*9?9*9*9?9*9,30.68,23.49,64.2,0,0,0,0,0,0.5,0,0,9999,9999,9,999999999,0,0.0,0,0,0.0,0.0
1997,1,1,9,33,?9?9?9?9E0?9?9?9*9*9?9?9?9?9?9?9*9?9*9*9?9*9,30.68,23.49,64.2,0,0,0,0,0,0.5,0,0,9999,9999,9,999999999,0,0.0,0,0,0.0,0.0
1997,1,1,9,34,?9?9?9?9E0?9?9?9*9*9?9?9?9?9?9?9*9?9*9*9?9*9,30.68,23.49,64.2,0,0,0,0,0,0.5,0,0,9999,9999,9,999999999,0,0.0,0,0,0.0,0.0
1997,1,1,9,35,?9?9?9?9E0?9?9?9*9*9?9?9?9?9?9?9*9?9*9*9?9*9,30.68,23.49,64.2,0,0,0,0,0,0.5,0,0,9999,9999,9,999999999,0,0.0,0,0,0.0,0.0
1997,1,1,9,36,?9?9?9?9E0?9?9?9*9*9?9?9?9?9?9?9*9?9*9*9?9*9,30.68,23.49,64.2,0,0,0,0,0,0.5,0,0,9999,9999,9,999999999,0,0.0,0,0,0.0,0.0
1997,1,1,9,37,?9?9?9?9E0?9?9?9*9*9?9?9?9?9?9?9*9?9*9*9?9*9,30.68,23.49,64.2,0,0,0,0,0,0.5,0,0,9999,9999,9,999999999,0,0.0,0,0,0.0,0.0
1997,1,1,9,38,?9?9?9?9E0?9?9?9*9*9?9?9?9?9?9?9*9?9*9*9?9*9,30.68,23.49,64.2,0,0,0,0,0,0.5,0,0,9999,9999,9,999999999,0,0.0,0,0,0.0,0.0
1997,1,1,9,39,?9?9?9?9E0?9?9?9*9*9?9?9?9?9?9?9*9?9*9*9?9*9,30.68,23.49,64.2,0,0,0,0,0,0.5,0,0,9999,9999,9,999999999,0,0.0,0,0,0.0,0.0
1997,1,1,9,40,?9?9?9?9E0?9?9?9*9*9?9?9?9?9?9?9*9?9*9*9?9*9,30.68,23.49,64.2,0,0,0,0,0,0.5,0,0,9999,9999,9,999999999,0,0.0,0,0,0.0,0.0
1997,1,1,9,41,?9?9?9?9E0?9?9?9*9*9?9?9?9?9?9?9*9?9*9*9?9*9,30.68,23.49,64.2,0,0,0,0,0,0.5,0,0,9999,9999,9,999999999,0,0.0,0,0,0.0,0.0
1997,1,1,9,42,?9?9?9?9E0?9?9?9*9*9?9?9?9?9?9?9*9?9*9*9?9*9,30.68,23.49,64.2,0,0,0,0,0,0.5,0,0,9999,9999,9,999999999,0,0.0,0,0,0.0,0.0
1997,1,1,9,43,?9?9?9?9E0?9?9?9*9*9?9?9?9?9?9?9*9?9*9*9?9*9,30.68,23.49,64.2,0,0,0,0,0,0.5,0,0,9999,9999,9,999999999,0,0.0,0,0,0.0,0.0
1997,1,1,9,44,?9?9?9?9E0?9?9?9*9*9?9?9?9?9?9?9*9?9*9*9?9*9,30.68,23.49,64.2,0,0,0,0,0,0.5,0,0,9999,9999,9,999999999,0,0.0,0,0,0.0,0.0
1997,1,1,9,45,?9?9?9?9E0?9?9?9*9*9?9?9?9?9?9?9*9?9*9*9?9*9,30.68,23.49,64.2,0,0,0,0,0,0.5,0,0,9999,9999,9,999999999,0,0.0,0,0,0.0,0.0
1997,1,1,9,46,?9?9?9?9E0?9?9?9*9*9?9?9?9?9?9?9*9?9*9*9?9*9,30.68,23.49,64.2,0,0,0,0,0,0.5,0,0,9999,9999,9,999999999,0,0.0,0,0,0.0,0.0
1997,1,1,9,47,?9?9?9?9E0?9?9?9*9*9?9?9?9?9?9?9*9?9*9*9?9*9,30.68,23.49,64.2,0,0,0,0,0,0.5,0,0,9999,9999,9,999999999,0,0.0,0,0,0.0,0.0
1997,1,1,9,48,?9?9?9?9E0?9?9?9*9*9?9?9?9?9?9?9*9?9*9*9?9*9,30.68,23.49,64.2,0,0,0,0,0,0.5,0,0,9999,9999,9,999999999,0,0.0,0,0,0.0,0.0
1997,1,1,9,49,?9?9?9?9E0?9?9?9*9*9?9?9?9?9?9?9*9?9*9*9?9*9,30.68,23.49,64.2,0,0,0,0,0,0.5,0,0,9999,9999,9,999999999,0,0.0,0,0,0.0,0.0
1997,1,1,9,50,?9?9?9?9E0?9?9?9*9*9?9?9?9?9?9?9*9?9*9*9?9*9,30.68,23.49,64.2,0,0,0,0,0,0.5,0,0,9999,9999,9,999999999,0,0.0,0,0,0.0,0.0
1997,1,1,9,51,?9?9?9?9E0?9?9?9*9*9?9?9?9?9?9?9*9?9*9*9?9*9,30.68,23.49,64.2,0,0,0,0,0,0.5,0,0,9999,9999,9,999999999,0,0.0,0,0,0.0,0.0
1997,1,1,9,52,?9?9?9?9E0?9?9?9*9*9?9?9?9?9?9?9*9?9*9*9?9*9,30.68,23.49,64.2,0,0,0,0,0,0.5,0,0,9999,9999,9,999999999,0,0.0,0,0,0.0,0.0
1997,1,1,9,53,?9?9?9?9E0?9?9?9*9*9?9?9?9?9?9?9*9?9*9*9?9*9,30.68,23.49,64.2,0,0,0,0,0,0.5,0,0,9999,9999,9,999999999,0,0.0,0,0,0.0,0.0
1997,1,1,9,54,?9?9?9?9E0?9?9?9*9*9?9?9?9?9?9?9*9?9*9*9?9*9,30.68,23.49,64.2,0,0,0,0,0,0.5,0,0,9999,9999,9,999999999,0,0.0,0,0,0.0,0.0
1997,1,1,9,55,?9?9?9?9E0?9?9?9*9*9?9?9?9?9?9?9*9?9*9*9?9*9,30.68,23.49,64.2,0,0,0,0,0,0.5,0,0,9999,9999,9,999999999,0,0.0,0,0,0.0,0.0
1997,1,1,9,56,?9?9?9?9E0?9?9?9*9*9?9?9?9?9?9?9*9?9*9*9?9*9,30.68,23.49,64.2,0,0,0,0,0,0.5,0,0,9999,9999,9,999999999,0,0.0,0,0,0.0,0.0
1997,1,1,9,57,?9?9?9?9E0?9?9?9*9*9?9?9?9?9?9?9*9?9*9*9?9*9,30.68,23.49,64.2,0,0,0,0,0,0.5,0,0,9999,9999,9,999999999,0,0.0,0,0,0.0,0.0
1997,1,1,9,58,?9?9?9?9E0?9?9?9*9*9?9?9?9?9?9?9*9?9*9*9?9*9,30.68,23.49,64.2,0,0,0,0,0,0.5,0,0,9999,9999,9,999999999,0,0.0,0,0,0.0,0.0
1997,1,1,9,59,?9?9?9?9E0?9?9?9*9*9?9?9?9?9?9?9*9?9*9*9?9*9,30.68,23.49,64.2,0,0,0,0,0,0.5,0,0,9999,9999,9,999999999,0,0.0,0,0,0.0,0.0
1997,1,1,9,60,?9?9?9?9E0?9?9?9*9*9?9?9?9?9?9?9*9?9*9*9?9*9,30.68,23.49,64.2,0,0,0,0,0,0.5,0,0,9999,9999,9,999999999,0,0.0,0,0,0.0,0.0
1997,1,1,10,1,?9?9?9?9E0?9?9?9*9*9?9?9?9?9?9?9*9?9*9*9?9*9,30.68,23.49,64.2,0,0,0,0,0,0.5,0,0,9999,9999,9,999999999,0,0.0,0,0,0.0,0.0
1997,1,1,10,2,?9?9?9?9E0?9?9?9*9*9?9?9?9?9?9?9*9?9*9*9?9*9,30.68,23.49,64.2,0,0,0,0,0,0.5,0,0,9999,9999,9,999999999,0,0.0,0,0,0.0,0.0
1997,1,1,10,3,?9?9?9?9E0?9?9?9*9*9?9?9?9?9?9?9*9?9*9*9?9*9,30.68,23.49,64.2,0,0,0,0,0,0.5,0,0,9999,9999,9,999999999,0,0.0,0,0,0.0,0.0
1997,1,1,10,4,?9?9?9?9E0?9?9?9*9*9?9?9?9?9?9?9*9?9*9*9?9*9,30.68,23.49,64.2,0,0,0,0,0,0.5,0,0,9999,9999,9,999999999,0,0.0,0,0,0.0,0.0
1997,1,1,10,5,?9?9?9?9E0?9?9?9*9*9?9?9?9?9?9?9*9?9*9*9?9*9,30.68,23.49,64.2,0,0,0,0,0,0.5,0,0,9999,9999,9,999999999,0,0.0,0,0,0.0,0.0
1997,1,1,10,6,?9?9?9?9E0?9?9?9*9*9?9?9?9?9?9?9*9?9*9*9?9*9,30.68,23.49,64.2,0,0,0,0,0,0.5,0,0,9999,9999,9,999999999,0,0.0,0,0,0.0,0.0
1997,1,1,10,7,?9?9?9?9E0?9?9?9*9*9?9?9?9?9?9?9*9?9*9*9?9*9,30.68,23.49,64.2,0,0,0,0,0,0.5,0,0,9999,9999,9,999999999,0,0.0,0,0,0.0,0.0
1997,1,1,10,8,?9?9?9?9E0?9?9?9*9*9?9?9?9?9?9?9*9?9*9*9?9*9,30.68,23.49,64.2,0,0,0,0,0,0.5,0,0,9999,9999,9,999999999,0,0.0,0,0,0.0,0.0
1997,1,1,10,9,?9?9?9?9E0?9?9?9*9*9?9?9?9?9?9?9*9?9*9*9?9*9,30.68,23.49,64.2,0,0,0,0,0,0.5,0,0,9999,9999,9,999999999,0,0.0,0,0,0.0,0.0
1997,1,1,10,10,?9?9?9?9E0?9?9?9*9*9?9?9?9?9?9?9*9?9*9*9?9*9,30.68,23.49,64.2,0,0,0,0,0,0.5,0,0,9999,9999,9,999999999,0,0.0,0,0,0.0,0.0
1997,1,1,10,11,?9?9?9?9E0?9?9?9*9*9?9?9?9?9?9?9*9?9*9*9?9*9,30.68,23.49,64.2,0,0,0,0,0,0.5,0,0,9999,9999,9,999999999,0,0.0,0,0,0.0,0.0
1997,1,1,10,12,?9?9?9?9E0?9?9?9*9*9?9?9?9?9?9?9*9?9*9*9?9*9,30.68,23.49,64.2,0,0,0,0,0,0.5,0,0,9999,9999,9,999999999,0,0.0,0,0,0.0,0.0
1997,1,1,10,13,?9?9?9?9E0?9?9?9*9*9?9?9?9?9?9?9*9?9*9*9?9*9,30.68,23.49,64.2,0,0,0,0,0,0.5,0,0,9999,9999,9,999999999,0,0.0,0,0,0.0,0.0
1997,1,1,10,14,?9?9?9?9E0?9?9?9*9*9?9?9?9?9?9?9*9?9*9*9?9*9,30.68,23.49,64.2,0,0,0,0,0,0.5,0,0,9999,9999,9,999999999,0,0.0,0,0,0.0,0.0
1997,1,1,10,15,?9?9?9?9E0?9?9?9*9*9?9?9?9?9?9?9*9?9*9*9?9*9,30.68,23.49,64.2,0,0,0,0,0,0.5,0,0,9999,9999,9,999999999,0,0.0,0,0,0.0,0.0
1997,1,1,10,16,?9?9?9?9E0?9?9?9*9*9?9?9?9?9?9?9*9?9*9*9?9*9,30.68,23.49,64.2,0,0,0,0,0,0.5,0,0,9999,9999,9,999999999,0,0.0,0,0,0.0,0.0
1997,1,1,10,17,?9?9?9?9E0?9?9?9*9*9?9?9?9?9?9?9*9?9*9*9?9*9,30.68,23.49,64.2,0,0,0,0,0,0.5,0,0,9999,9999,9,999999999,0,0.0,0,0,0.0,0.0
1997,1,1,10,18,?9?9?9?9E0?9?9?9*9*9?9?9?9?9?9?9*9?9*9*9?9*9,30.68,23.49,64.2,0,0,0,0,0,0.5,0,0,9999,9999,9,999999999,0,0.0,0,0,0.0,0.0
1997,1,1,10,19,?9?9?9?9E0?9?9?9*9*9?9?9?9?9?9?9*9?9*9*9?9*9,30.68,23.49,64.2,0,0,0,0,0,0.5,0,0,9999,9999,9,999999999,0,0.0,0,0,0.0,0.0
1997,1,1,10,20,?9?9?9?9E0?9?9?9*9*9?9?9?9?9?9?9*9?9*9*9?9*9,30.68,23.49,64.2,0,0,0,0,0,0.5,0,0,9999,9999,9,999999999,0,0.0,0,0,0.0,0.0
1997,1,1,10,21,?9?9?9?9E0?9?9?9*9*9?9?9?9?9?9?9*9?9*9*9?9*9,30.68,23.49,64.2,0,0,0,0,0,0.5,0,0,9999,9999,9,999999999,0,0.0,0,0,0.0,0.0
1997,1,1,10,22,?9?9?9?9E0?9?9?9*9*9?9?9?9?9?9?9*9?9*9*9?9*9,30.68,23.49,64.2,0,0,0,0,0,0.5,0,0,9999,9999,9,999999999,0,0.0,0,0,0.0,0.0
1997,1,1,10,23,?9?9?9?9E0?9?9?9*9*9?9?9?9?9?9?9*9?9*9*9?9*9,30.68,23.49,64.2,0,0,0,0,0,0.5,0,0,9999,9999,9,999999999,0,0.0,0,0,0.0,0.0
1997,1,1,10,24,?9?9?9?9E0?9?9?9*9*9?9?9?9?9?9?9*9?9*9*9?9*9,30.68,23.49,64.2,0,0,0,0,0,0.5,0,0,9999,9999,9,999999999,0,0.0,0,0,0.0,0.0
1997,1,1,10,25,?9?9?9?9E0?9?9?9*9*9?9?9?9?9?9?9*9?9*9*9?9*9,30.68,23.49,64.2,0,0,0,0,0,0.5,0,0,9999,9999,9,999999999,0,0.0,0,0,0.0,0.0
1997,1,1,10,26,?9?9?9?9E0?9?9?9*9*9?9?9?9?9?9?9*9?9*9*9?9*9,30.68,23.49,64.2,0,0,0,0,0,0.5,0,0,9999,9999,9,999999999,0,0.0,0,0,0.0,0.0
1997,1,1,10,27,?9?9?9?9E0?9?9?9*9*9?9?9?9?9?9?9*9?9*9*9?9*9,30.68,23.49,64.2,0,0,0,0,0,0.5,0,0,9999,9999,9,999999999,0,0.0,0,0,0.0,0.0
1997,1,1,10,28,?9?9?9?9E0?9?9?9*9*9?9?9?9?9?9?9*9?9*9*9?9*9,30.68,23.49,64.2,0,0,0,0,0,0.5,0,0,9999,9999,9,999999999,0,0.0,0,0,0.0,0.0
1997,1,1,10,29,?9?9?9?9E0?9?9?9*9*9?9?9?9?9?9?9*9?9*9*9?9*9,30.68,23.49,64.2,0,0,0,0,0,0.5,0,0,9999,9999,9,999999999,0,0.0,0,0,0.0,0.0
1997,1,1,10,30,?9?9?9?9E0?9?9?9*9*9?9?9?9?9?9?9*9?9*9*9?9*9,30.68,23.49,64.2,0,0,0,0,0,0.5,0,0,9999,9999,9,999999999,0,0.0,0,0,0.0,0.0
1997,1,1,10,31,?9?9?9?9E0?9?9?9*9*9?9?9?9?9?9?9*9?9*9*9?9*9,30.68,23.49,64.2,0,0,0,0,0,0.5,0,0,9999,9999,9,999999999,0,0.0,0,0,0.0,0.0
1997,1,1,10,32,?9?9?9?9E0?9?9?9*9*9?9?9?9?9?9?9*9?9*9*9?9*9,30.68,23.49,64.2,0,0,0,0,0,0.5,0,0,9999,9999,9,999999999,0,0.0,0,0,0.0,0.0
1997,1,1,10,33,?9?9?9?9E0?9?9?9*9*9?9?9?9?9?9?9*9?9*9*9?9*9,30.68,23.49,64.2,0,0,0,0,0,0.5,0,0,9999,9999,9,999999999,0,0.0,0,0,0.0,0.0
1997,1,1,10,34,?9?9?9?9E0?9?9?9*9*9?9?9?9?9?9?9*9?9*9*9?9*9,30.68,23.49,64.2,0,0,0,0,0,0.5,0,0,9999,9999,9,999999999,0,0.0,0,0,0.0,0.0
1997,1,1,10,35,?9?9?9?9E0?9?9?9*9*9?9?9?9?9?9?9*9?9*9*9?9*9,30.68,23.49,64.2,0,0,0,0,0,0.5,0,0,9999,9999,9,999999999,0,0.0,0,0,0.0,0.0
1997,1,1,10,36,?9?9?9?9E0?9?9?9*9*9?9?9?9?9?9?9*9?9*9*9?9*9,30.68,23.49,64.2,0,0,0,0,0,0.5,0,0,9999,9999,9,999999999,0,0.0,0,0,0.0,0.0
1997,1,1,10,37,?9?9?9?9E0?9?9?9*9*9?9?9?9?9?9?9*9?9*9*9?9*9,30.68,23.49,64.2,0,0,0,0,0,0.5,0,0,9999,9999,9,999999999,0,0.0,0,0,0.0,0.0
1997,1,1,10,38,?9?9?9?9E0?9?9?9*9*9?9?9?9?9?9?9*9?9*9*9?9*9,30.68,23.49,64.2,0,0,0,0,0,0.5,0,0,9999,9999,9,999999999,0,0.0,0,0,0.0,0.0
1997,1,1,10,39,?9?9?9?9E0?9?9?9*9*9?9?9?9?9?9?9*9?9*9*9?9*9,30.68,23.49,64.2,0,0,0,0,0,0.5,0,0,9999,9999,9,999999999,0,0.0,0,0,0.0,0.0
1997,1,1,10,40,?9?9?9?9E0?9?9?9*9*9?9?9?9?9?9?9*9?9*9*9?9*9,30.68,23.49,64.2,0,0,0,0,0,0.5,0,0,9999,9999,9,999999999,0,0.0,0,0,0.0,0.0
1997,1,1,10,41,?9?9?9?9E0?9?9?9*9*9?9?9?9?9?9?9*9?9*9*9?9*9,30.68,23.49,64.2,0,0,0,0,0,0.5,0,0,9999,9999,9,999999999,0,0.0,0,0,0.0,0.0
1997,1,1,10,42,?9?9?9?9E0?9?9?9*9*9?9?9?9?9?9?9*9?9*9*9?9*9,30.68,23.49,64.2,0,0,0,0,0,0.5,0,0,9999,9999,9,999999999,0,0.0,0,0,0.0,0.0
1997,1,1,10,43,?9?9?9?9E0?9?9?9*9*9?9?9?9?9?9?9*9?9*9*9?9*9,30.68,23.49,64.2,0,0,0,0,0,0.5,0,0,9999,9999,9,999999999,0,0.0,0,0,0.0,0.0
1997,1,1,10,44,?9?9?9?9E0?9?9?9*9*9?9?9?9?9?9?9*9?9*9*9?9*9,30.68,23.49,64.2,0,0,0,0,0,0.5,0,0,9999,9999,9,999999999,0,0.0,0,0,0.0,0.0
1997,1,1,10,45,?9?9?9?9E0?9?9?9*9*9?9?9?9?9?9?9*9?9*9*9?9*9,30.68,23.49,64.2,0,0,0,0,0,0.5,0,0,9999,9999,9,999999999,0,0.0,0,0,0.0,0.0
1997,1,1,10,46,?9?9?9?9E0?9?9?9*9*9?9?9?9?9?9?9*9?9*9*9?9*9,30.68,23.49,64.2,0,0,0,0,0,0.5,0,0,9999,9999,9,999999999,0,0.0,0,0,0.0,0.0
1997,1,1,10,47,?9?9?9?9E0?9?9?9*9*9?9?9?9?9?9?9*9?9*9*9?9*9,30.68,23.49,64.2,0,0,0,0,0,0.5,0,0,9999,9999,9,999999999,0,0.0,0,0,0.0,0.0
1997,1,1,10,48,?9?9?9?9E0?9?9?9*9*9?9?9?9?9?9?9*9?9*9*9?9*9,30.68,23.49,64.2,0,0,0,0,0,0.5,0,0,9999,9999,9,999999999,0,0.0,0,0,0.0,0.0
1997,1,1,10,49,?9?9?9?9E0?9?9?9*9*9?9?9?9?9?9?9*9?9*9*9?9*9,30.68,23.49,64.2,0,0,0,0,0,0.5,0,0,9999,9999,9,999999999,0,0.0,0,0,0.0,0.0
1997,1,1,10,50,?9?9?9?9E0?9?9?9*9*9?9?9?9?9?9?9*9?9*9*9?9*9,30.68,23.49,64.2,0,0,0,0,0,0.5,0,0,9999,9999,9,999999999,0,0.0,0,0,0.0,0.0
1997,1,1,10,51,?9?9?9?9E0?9?9?9*9*9?9?9?9?9?9?9*9?9*9*9?9*9,30.68,23.49,64.2,0,0,0,0,0,0.5,0,0,9999,9999,9,999999999,0,0.0,0,0,0.0,0.0
1997,1,1,10,52,?9?9?9?9E0?9?9?9*9*9?9?9?9?9?9?9*9?9*9*9?9*9,30.68,23.49,64.2,0,0,0,0,0,0.5,0,0,9999,9999,9,999999999,0,0.0,0,0,0.0,0.0
1997,1,1,10,53,?9?9?9?9E0?9?9?9*9*9?9?9?9?9?9?9*9?9*9*9?9*9,30.68,23.49,64.2,0,0,0,0,0,0.5,0,0,9999,9999,9,999999999,0,0.0,0,0,0.0,0.0
1997,1,1,10,54,?9?9?9?9E0?9?9?9*9*9?9?9?9?9?9?9*9?9*9*9?9*9,30.68,23.49,64.2,0,0,0,0,0,0.5,0,0,9999,9999,9,999999999,0,0.0,0,0,0.0,0.0
1997,1,1,10,55,?9?9?9?9E0?9?9?9*9*9?9?9?9?9?9?9*9?9*9*9?9*9,30.68,23.49,64.2,0,0,0,0,0,0.5,0,0,9999,9999,9,999999999,0,0.0,0,0,0.0,0.0
1997,1,1,10,56,?9?9?9?9E0?9?9?9*9*9?9?9?9?9?9?9*9?9*9*9?9*9,30.68,23.49,64.2,0,0,0,0,0,0.5,0,0,9999,9999,9,999999999,0,0.0,0,0,0.0,0.0
1997,1,1,10,57,?9?9?9?9E0?9?9?9*9*9?9?9?9?9?9?9*9?9*9*9?9*9,30.68,23.49,64.2,0,0,0,0,0,0.5,0,0,9999,9999,9,999999999,0,0.0,0,0,0.0,0.0
1997,1,1,10,58,?9?9?9?9E0?9?9?9*9*9?9?9?9?9?9?9*9?9*9*9?9*9,30.68,23.49,64.2,0,0,0,0,0,0.5,0,0,9999,9999,9,999999999,0,0.0,0,0,0.0,0.0
1997,1,1,10,59,?9?9?9?9E0?9?9?9*9*9?9?9?9?9?9?9*9?9*9*9?9*9,30.68,23.49,64.2,0,0,0,0,0,0.5,0,0,9999,9999,9,999999999,0,0.0,0,0,0.0,0.0
1997,1,1,10,60,?9?9?9?9E0?9?9?9*9*9?9?9?9?9?9?9*9?9*9*9?9*9,30.68,23.49,64.2,0,0,0,0,0,0.5,0,0,9999,9999,9,999999999,0,0.0,0,0,0.0,0.0
1997,1,1,11,1,?9?9?9?9E0?9?9?9*9*9?9?9?9?9?9?9*9?9*9*9?9*9,30.68,23.49,64.2,0,0,0,0,0,0.5,0,0,9999,9999,9,999999999,0,0.0,0,0,0.0,0.0
1997,1,1,11,2,?9?9?9?9E0?9?9?9*9*9?9?9?9?9?9?9*9?9*9*9?9*9,30.68,23.49,64.2,0,0,0,0,0,0.5,0,0,9999,9999,9,999999999,0,0.0,0,0,0.0,0.0
1997,1,1,11,3,?9?9?9?9E0?9?9?9*9*9?9?9?9?9?9?9*9?9*9*9?9*9,30.68,23.49,64.2,0,0,0,0,0,0.5,0,0,9999,9999,9,999999999,0,0.0,0,0,0.0,0.0
1997,1,1,11,4,?9?9?9?9E0?9?9?9*9*9?9?9?9?9?9?9*9?9*9*9?9*9,30.68,23.49,64.2,0,0,0,0,0,0.5,0,0,9999,9999,9,999999999,0,0.0,0,0,0.0,0.0
1997,1,1,11,5,?9?9?9?9E0?9?9?9*9*9?9?9?9?9?9?9*9?9*9*9?9*9,30.68,23.49,64.2,0,0,0,0,0,0.5,0,0,9999,9999,9,999999999,0,0.0,0,0,0.0,0.0
1997,1,1,11,6,?9?9?9?9E0?9?9?9*9*9?9?9?9?9?9?9*9?9*9*9?9*9,30.68,23.49,64.2,0,0,0,0,0,0.5,0,0,9999,9999,9,999999999,0,0.0,0,0,0.0,0.0
1997,1,1,11,7,?9?9?9?9E0?9?9?9*9*9?9?9?9?9?9?9*9?9*9*9?9*9,30.68,23.49,64.2,0,0,0,0,0,0.5,0,0,9999,9999,9,999999999,0,0.0,0,0,0.0,0.0
1997,1,1,11,8,?9?9?9?9E0?9?9?9*9*9?9?9?9?9?9?9*9?9*9*9?9*9,30.68,23.49,64.2,0,0,0,0,0,0.5,0,0,9999,9999,9,999999999,0,0.0,0,0,0.0,0.0
1997,1,1,11,9,?9?9?9?9E0?9?9?9*9*9?9?9?9?9?9?9*9?9*9*9?9*9,30.68,23.49,64.2,0,0,0,0,0,0.5,0,0,9999,9999,9,999999999,0,0.0,0,0,0.0,0.0
1997,1,1,11,10,?9?9?9?9E0?9?9?9*9*9?9?9?9?9?9?9*9?9*9*9?9*9,30.68,23.49,64.2,0,0,0,0,0,0.5,0,0,9999,9999,9,999999999,0,0.0,0,0,0.0,0.0
1997,1,1,11,11,?9?9?9?9E0?9?9?9*9*9?9?9?9?9?9?9*9?9*9*9?9*9,30.68,23.49,64.2,0,0,0,0,0,0.5,0,0,9999,9999,9,999999999,0,0.0,0,0,0.0,0.0
1997,1,1,11,12,?9?9?9?9E0?9?9?9*9*9?9?9?9?9?9?9*9?9*9*9?9*9,30.68,23.49,64.2,0,0,0,0,0,0.5,0,0,9999,9999,9,999999999,0,0.0,0,0,0.0,0.0
1997,1,1,11,13,?9?9?9?9E0?9?9?9*9*9?9?9?9?9?9?9*9?9*9*9?9*9,30.68,23.49,64.2,0,0,0,0,0,0.5,0,0,9999,9999,9,999999999,0,0.0,0,0,0.0,0.0
1997,1,1,11,14,?9?9?9?9E0?9?9?9*9*9?9?9?9?9?9?9*9?9*9*9?9*9,30.68,23.49,64.2,0,0,0,0,0,0.5,0,0,9999,9999,9,999999999,0,0.0,0,0,0.0,0.0
1997,1,1,11,15,?9?9?9?9E0?9?9?9*9*9?9?9?9?9?9?9*9?9*9*9?9*9,30.68,23.49,64.2,0,0,0,0,0,0.5,0,0,9999,9999,9,999999999,0,0.0,0,0,0.0,0.0
1997,1,1,11,16,?9?9?9?9E0?9?9?9*9*9?9?9?9?9?9?9*9?9*9*9?9*9,30.68,23.49,64.2,0,0,0,0,0,0.5,0,0,9999,9999,9,999999999,0,0.0,0,0,0.0,0.0
1997,1,1,11,17,?9?9?9?9E0?9?9?9*9*9?9?9?9?9?9?9*9?9*9*9?9*9,30.68,23.49,64.2,0,0,0,0,0,0.5,0,0,9999,9999,9,999999999,0,0.0,0,0,0.0,0.0
1997,1,1,11,18,?9?9?9?9E0?9?9?9*9*9?9?9?9?9?9?9*9?9*9*9?9*9,30.68,23.49,64.2,0,0,0,0,0,0.5,0,0,9999,9999,9,999999999,0,0.0,0,0,0.0,0.0
1997,1,1,11,19,?9?9?9?9E0?9?9?9*9*9?9?9?9?9?9?9*9?9*9*9?9*9,30.68,23.49,64.2,0,0,0,0,0,0.5,0,0,9999,9999,9,999999999,0,0.0,0,0,0.0,0.0
1997,1,1,11,20,?9?9?9?9E0?9?9?9*9*9?9?9?9?9?9?9*9?9*9*9?9*9,30.68,23.49,64.2,0,0,0,0,0,0.5,0,0,9999,9999,9,999999999,0,0.0,0,0,0.0,0.0
1997,1,1,11,21,?9?9?9?9E0?9?9?9*9*9?9?9?9?9?9?9*9?9*9*9?9*9,30.68,23.49,64.2,0,0,0,0,0,0.5,0,0,9999,9999,9,999999999,0,0.0,0,0,0.0,0.0
1997,1,1,11,22,?9?9?9?9E0?9?9?9*9*9?9?9?9?9?9?9*9?9*9*9?9*9,30.68,23.49,64.2,0,0,0,0,0,0.5,0,0,9999,9999,9,999999999,0,0.0,0,0,0.0,0.0
1997,1,1,11,23,?9?9?9?9E0?9?9?9*9*9?9?9?9?9?9?9*9?9*9*9?9*9,30.68,23.49,64.2,0,0,0,0,0,0.5,0,0,9999,9999,9,999999999,0,0.0,0,0,0.0,0.0
1997,1,1,11,24,?9?9?9?9E0?9?9?9*9*9?9?9?9?9?9?9*9?9*9*9?9*9,30.68,23.49,64.2,0,0,0,0,0,0.5,0,0,9999,9999,9,999999999,0,0.0,0,0,0.0,0.0
1997,1,1,11,25,?9?9?9?9E0?9?9?9*9*9?9?9?9?9?9?9*9?9*9*9?9*9,30.68,23.49,64.2,0,0,0,0,0,0.5,0,0,9999,9999,9,999999999,0,0.0,0,0,0.0,0.0
1997,1,1,11,26,?9?9?9?9E0?9?9?9*9*9?9?9?9?9?9?9*9?9*9*9?9*9,30.68,23.49,64.2,0,0,0,0,0,0.5,0,0,9999,9999,9,999999999,0,0.0,0,0,0.0,0.0
1997,1,1,11,27,?9?9?9?9E0?9?9?9*9*9?9?9?9?9?9?9*9?9*9*9?9*9,30.68,23.49,64.2,0,0,0,0,0,0.5,0,0,9999,9999,9,999999999,0,0.0,0,0,0.0,0.0
1997,1,1,11,28,?9?9?9?9E0?9?9?9*9*9?9?9?9?9?9?9*9?9*9*9?9*9,30.68,23.49,64.2,0,0,0,0,0,0.5,0,0,9999,9999,9,999999999,0,0.0,0,0,0.0,0.0
1997,1,1,11,29,?9?9?9?9E0?9?9?9*9*9?9?9?9?9?9?9*9?9*9*9?9*9,30.68,23.49,64.2,0,0,0,0,0,0.5,0,0,9999,9999,9,999999999,0,0.0,0,0,0.0,0.0
1997,1,1,11,30,?9?9?9?9E0?9?9?9*9*9?9?9?9?9?9?9*9?9*9*9?9*9,30.68,23.49,64.2,0,0,0,0,0,0.5,0,0,9999,9999,9,999999999,0,0.0,0,0,0.0,0.0
1997,1,1,11,31,?9?9?9?9E0?9?9?9*9*9?9?9?9?9?9?9*9?9*9*9?9*9,30.68,23.49,64.2,0,0,0,0,0,0.5,0,0,9999,9999,9,999999999,0,0.0,0,0,0.0,0.0
1997,1,1,11,32,?9?9?9?9E0?9?9?9*9*9?9?9?9?9?9?9*9?9*9*9?9*9,30.68,23.49,64.2,0,0,0,0,0,0.5,0,0,9999,9999,9,999999999,0,0.0,0,0,0.0,0.0
1997,1,1,11,33,?9?9?9?9E0?9?9?9*9*9?9?9?9?9?9?9*9?9*9*9?9*9,30.68,23.49,64.2,0,0,0,0,0,0.5,0,0,9999,9999,9,999999999,0,0.0,0,0,0.0,0.0
1997,1,1,11,34,?9?9?9?9E0?9?9?9*9*9?9?9?9?9?9?9*9?9*9*9?9*9,30.68,23.49,64.2,0,0,0,0,0,0.5,0,0,9999,9999,9,999999999,0,0.0,0,0,0.0,0.0
1997,1,1,11,35,?9?9?9?9E0?9?9?9*9*9?9?9?9?9?9?9*9?9*9*9?9*9,30.68,23.49,64.2,0,0,0,0,0,0.5,0,0,9999,9999,9,999999999,0,0.0,0,0,0.0,0.0
1997,1,1,11,36,?9?9?9?9E0?9?9?9*9*9?9?9?9?9?9?9*9?9*9*9?9*9,30.68,23.49,64.2,0,0,0,0,0,0.5,0,0,9999,9999,9,999999999,0,0.0,0,0,0.0,0.0
1997,1,1,11,37,?9?9?9?9E0?9?9?9*9*9?9?9?9?9?9?9*9?9*9*9?9*9,30.68,23.49,64.2,0,0,0,0,0,0.5,0,0,9999,9999,9,999999999,0,0.0,0,0,0.0,0.0
1997,1,1,11,38,?9?9?9?9E0?9?9?9*9*9?9?9?9?9?9?9*9?9*9*9?9*9,30.68,23.49,64.2,0,0,0,0,0,0.5,0,0,9999,9999,9,999999999,0,0.0,0,0,0.0,0.0
1997,1,1,11,39,?9?9?9?9E0?9?9?9*9*9?9?9?9?9?9?9*9?9*9*9?9*9,30.68,23.49,64.2,0,0,0,0,0,0.5,0,0,9999,9999,9,999999999,0,0.0,0,0,0.0,0.0
1997,1,1,11,40,?9?9?9?9E0?9?9?9*9*9?9?9?9?9?9?9*9?9*9*9?9*9,30.68,23.49,64.2,0,0,0,0,0,0.5,0,0,9999,9999,9,999999999,0,0.0,0,0,0.0,0.0
1997,1,1,11,41,?9?9?9?9E0?9?9?9*9*9?9?9?9?9?9?9*9?9*9*9?9*9,30.68,23.49,64.2,0,0,0,0,0,0.5,0,0,9999,9999,9,999999999,0,0.0,0,0,0.0,0.0
1997,1,1,11,42,?9?9?9?9E0?9?9?9*9*9?9?9?9?9?9?9*9?9*9*9?9*9,30.68,23.49,64.2,0,0,0,0,0,0.5,0,0,9999,9999,9,999999999,0,0.0,0,0,0.0,0.0
1997,1,1,11,43,?9?9?9?9E0?9?9?9*9*9?9?9?9?9?9?9*9?9*9*9?9*9,30.68,23.49,64.2,0,0,0,0,0,0.5,0,0,9999,9999,9,999999999,0,0.0,0,0,0.0,0.0
1997,1,1,11,44,?9?9?9?9E0?9?9?9*9*9?9?9?9?9?9?9*9?9*9*9?9*9,30.68,23.49,64.2,0,0,0,0,0,0.5,0,0,9999,9999,9,999999999,0,0.0,0,0,0.0,0.0
1997,1,1,11,45,?9?9?9?9E0?9?9?9*9*9?9?9?9?9?9?9*9?9*9*9?9*9,30.68,23.49,64.2,0,0,0,0,0,0.5,0,0,9999,9999,9,999999999,0,0.0,0,0,0.0,0.0
1997,1,1,11,46,?9?9?9?9E0?9?9?9*9*9?9?9?9?9?9?9*9?9*9*9?9*9,30.68,23.49,64.2,0,0,0,0,0,0.5,0,0,9999,9999,9,999999999,0,0.0,0,0,0.0,0.0
1997,1,1,11,47,?9?9?9?9E0?9?9?9*9*9?9?9?9?9?9?9*9?9*9*9?9*9,30.68,23.49,64.2,0,0,0,0,0,0.5,0,0,9999,9999,9,999999999,0,0.0,0,0,0.0,0.0
1997,1,1,11,48,?9?9?9?9E0?9?9?9*9*9?9?9?9?9?9?9*9?9*9*9?9*9,30.68,23.49,64.2,0,0,0,0,0,0.5,0,0,9999,9999,9,999999999,0,0.0,0,0,0.0,0.0
1997,1,1,11,49,?9?9?9?9E0?9?9?9*9*9?9?9?9?9?9?9*9?9*9*9?9*9,30.68,23.49,64.2,0,0,0,0,0,0.5,0,0,9999,9999,9,999999999,0,0.0,0,0,0.0,0.0
1997,1,1,11,50,?9?9?9?9E0?9?9?9*9*9?9?9?9?9?9?9*9?9*9*9?9*9,30.68,23.49,64.2,0,0,0,0,0,0.5,0,0,9999,9999,9,999999999,0,0.0,0,0,0.0,0.0
1997,1,1,11,51,?9?9?9?9E0?9?9?9*9*9?9?9?9?9?9?9*9?9*9*9?9*9,30.68,23.49,64.2,0,0,0,0,0,0.5,0,0,9999,9999,9,999999999,0,0.0,0,0,0.0,0.0
1997,1,1,11,52,?9?9?9?9E0?9?9?9*9*9?9?9?9?9?9?9*9?9*9*9?9*9,30.68,23.49,64.2,0,0,0,0,0,0.5,0,0,9999,9999,9,999999999,0,0.0,0,0,0.0,0.0
1997,1,1,11,53,?9?9?9?9E0?9?9?9*9*9?9?9?9?9?9?9*9?9*9*9?9*9,30.68,23.49,64.2,0,0,0,0,0,0.5,0,0,9999,9999,9,999999999,0,0.0,0,0,0.0,0.0
1997,1,1,11,54,?9?9?9?9E0?9?9?9*9*9?9?9?9?9?9?9*9?9*9*9?9*9,30.68,23.49,64.2,0,0,0,0,0,0.5,0,0,9999,9999,9,999999999,0,0.0,0,0,0.0,0.0
1997,1,1,11,55,?9?9?9?9E0?9?9?9*9*9?9?9?9?9?9?9*9?9*9*9?9*9,30.68,23.49,64.2,0,0,0,0,0,0.5,0,0,9999,9999,9,999999999,0,0.0,0,0,0.0,0.0
1997,1,1,11,56,?9?9?9?9E0?9?9?9*9*9?9?9?9?9?9?9*9?9*9*9?9*9,30.68,23.49,64.2,0,0,0,0,0,0.5,0,0,9999,9999,9,999999999,0,0.0,0,0,0.0,0.0
1997,1,1,11,57,?9?9?9?9E0?9?9?9*9*9?9?9?9?9?9?9*9?9*9*9?9*9,30.68,23.49,64.2,0,0,0,0,0,0.5,0,0,9999,9999,9,999999999,0,0.0,0,0,0.0,0.0
1997,1,1,11,58,?9?9?9?9E0?9?9?9*9*9?9?9?9?9?9?9*9?9*9*9?9*9,30.68,23.49,64.2,0,0,0,0,0,0.5,0,0,9999,9999,9,999999999,0,0.0,0,0,0.0,0.0
1997,1,1,11,59,?9?9?9?9E0?9?9?9*9*9?9?9?9?9?9?9*9?9*9*9?9*9,30.68,23.49,64.2,0,0,0,0,0,0.5,0,0,9999,9999,9,999999999,0,0.0,0,0,0.0,0.0
1997,1,1,11,60,?9?9?9?9E0?9?9?9*9*9?9?9?9?9?9?9*9?9*9*9?9*9,30.68,23.49,64.2,0,0,0,0,0,0.5,0,0,9999,9999,9,999999999,0,0.0,0,0,0.0,0.0
1997,1,1,12,1,?9?9?9?9E0?9?9?9*9*9?9?9?9?9?9?9*9?9*9*9?9*9,30.68,23.49,64.2,0,0,0,0,0,0.5,0,0,9999,9999,9,999999999,0,0.0,0,0,0.0,0.0
1997,1,1,12,2,?9?9?9?9E0?9?9?9*9*9?9?9?9?9?9?9*9?9*9*9?9*9,30.68,23.49,64.2,0,0,0,0,0,0.5,0,0,9999,9999,9,999999999,0,0.0,0,0,0.0,0.0
1997,1,1,12,3,?9?9?9?9E0?9?9?9*9*9?9?9?9?9?9?9*9?9*9*9?9*9,30.68,23.49,64.2,0,0,0,0,0,0.5,0,0,9999,9999,9,999999999,0,0.0,0,0,0.0,0.0
1997,1,1,12,4,?9?9?9?9E0?9?9?9*9*9?9?9?9?9?9?9*9?9*9*9?9*9,30.68,23.49,64.2,0,0,0,0,0,0.5,0,0,9999,9999,9,999999999,0,0.0,0,0,0.0,0.0
1997,1,1,12,5,?9?9?9?9E0?9?9?9*9*9?9?9?9?9?9?9*9?9*9*9?9*9,30.68,23.49,64.2,0,0,0,0,0,0.5,0,0,9999,9999,9,999999999,0,0.0,0,0,0.0,0.0
1997,1,1,12,6,?9?9?9?9E0?9?9?9*9*9?9?9?9?9?9?9*9?9*9*9?9*9,30.68,23.49,64.2,0,0,0,0,0,0.5,0,0,9999,9999,9,999999999,0,0.0,0,0,0.0,0.0
1997,1,1,12,7,?9?9?9?9E0?9?9?9*9*9?9?9?9?9?9?9*9?9*9*9?9*9,30.68,23.49,64.2,0,0,0,0,0,0.5,0,0,9999,9999,9,999999999,0,0.0,0,0,0.0,0.0
1997,1,1,12,8,?9?9?9?9E0?9?9?9*9*9?9?9?9?9?9?9*9?9*9*9?9*9,30.68,23.49,64.2,0,0,0,0,0,0.5,0,0,9999,9999,9,999999999,0,0.0,0,0,0.0,0.0
1997,1,1,12,9,?9?9?9?9E0?9?9?9*9*9?9?9?9?9?9?9*9?9*9*9?9*9,30.68,23.49,64.2,0,0,0,0,0,0.5,0,0,9999,9999,9,999999999,0,0.0,0,0,0.0,0.0
1997,1,1,12,10,?9?9?9?9E0?9?9?9*9*9?9?9?9?9?9?9*9?9*9*9?9*9,30.68,23.49,64.2,0,0,0,0,0,0.5,0,0,9999,9999,9,999999999,0,0.0,0,0,0.0,0.0
1997,1,1,12,11,?9?9?9?9E0?9?9?9*9*9?9?9?9?9?9?9*9?9*9*9?9*9,30.68,23.49,64.2,0,0,0,0,0,0.5,0,0,9999,9999,9,999999999,0,0.0,0,0,0.0,0.0
1997,1,1,12,12,?9?9?9?9E0?9?9?9*9*9?9?9?9?9?9?9*9?9*9*9?9*9,30.68,23.49,64.2,0,0,0,0,0,0.5,0,0,9999,9999,9,999999999,0,0.0,0,0,0.0,0.0
1997,1,1,12,13,?9?9?9?9E0?9?9?9*9*9?9?9?9?9?9?9*9?9*9*9?9*9,30.68,23.49,64.2,0,0,0,0,0,0.5,0,0,9999,9999,9,999999999,0,0.0,0,0,0.0,0.0
1997,1,1,12,14,?9?9?9?9E0?9?9?9*9*9?9?9?9?9?9?9*9?9*9*9?9*9,30.68,23.49,64.2,0,0,0,0,0,0.5,0,0,9999,9999,9,999999999,0,0.0,0,0,0.0,0.0
1997,1,1,12,15,?9?9?9?9E0?9?9?9*9*9?9?9?9?9?9?9*9?9*9*9?9*9,30.68,23.49,64.2,0,0,0,0,0,0.5,0,0,9999,9999,9,999999999,0,0.0,0,0,0.0,0.0
1997,1,1,12,16,?9?9?9?9E0?9?9?9*9*9?9?9?9?9?9?9*9?9*9*9?9*9,30.68,23.49,64.2,0,0,0,0,0,0.5,0,0,9999,9999,9,999999999,0,0.0,0,0,0.0,0.0
1997,1,1,12,17,?9?9?9?9E0?9?9?9*9*9?9?9?9?9?9?9*9?9*9*9?9*9,30.68,23.49,64.2,0,0,0,0,0,0.5,0,0,9999,9999,9,999999999,0,0.0,0,0,0.0,0.0
1997,1,1,12,18,?9?9?9?9E0?9?9?9*9*9?9?9?9?9?9?9*9?9*9*9?9*9,30.68,23.49,64.2,0,0,0,0,0,0.5,0,0,9999,9999,9,999999999,0,0.0,0,0,0.0,0.0
1997,1,1,12,19,?9?9?9?9E0?9?9?9*9*9?9?9?9?9?9?9*9?9*9*9?9*9,30.68,23.49,64.2,0,0,0,0,0,0.5,0,0,9999,9999,9,999999999,0,0.0,0,0,0.0,0.0
1997,1,1,12,20,?9?9?9?9E0?9?9?9*9*9?9?9?9?9?9?9*9?9*9*9?9*9,30.68,23.49,64.2,0,0,0,0,0,0.5,0,0,9999,9999,9,999999999,0,0.0,0,0,0.0,0.0
1997,1,1,12,21,?9?9?9?9E0?9?9?9*9*9?9?9?9?9?9?9*9?9*9*9?9*9,30.68,23.49,64.2,0,0,0,0,0,0.5,0,0,9999,9999,9,999999999,0,0.0,0,0,0.0,0.0
1997,1,1,12,22,?9?9?9?9E0?9?9?9*9*9?9?9?9?9?9?9*9?9*9*9?9*9,30.68,23.49,64.2,0,0,0,0,0,0.5,0,0,9999,9999,9,999999999,0,0.0,0,0,0.0,0.0
1997,1,1,12,23,?9?9?9?9E0?9?9?9*9*9?9?9?9?9?9?9*9?9*9*9?9*9,30.68,23.49,64.2,0,0,0,0,0,0.5,0,0,9999,9999,9,999999999,0,0.0,0,0,0.0,0.0
1997,1,1,12,24,?9?9?9?9E0?9?9?9*9*9?9?9?9?9?9?9*9?9*9*9?9*9,30.68,23.49,64.2,0,0,0,0,0,0.5,0,0,9999,9999,9,999999999,0,0.0,0,0,0.0,0.0
1997,1,1,12,25,?9?9?9?9E0?9?9?9*9*9?9?9?9?9?9?9*9?9*9*9?9*9,30.68,23.49,64.2,0,0,0,0,0,0.5,0,0,9999,9999,9,999999999,0,0.0,0,0,0.0,0.0
1997,1,1,12,26,?9?9?9?9E0?9?9?9*9*9?9?9?9?9?9?9*9?9*9*9?9*9,30.68,23.49,64.2,0,0,0,0,0,0.5,0,0,9999,9999,9,999999999,0,0.0,0,0,0.0,0.0
1997,1,1,12,27,?9?9?9?9E0?9?9?9*9*9?9?9?9?9?9?9*9?9*9*9?9*9,30.68,23.49,64.2,0,0,0,0,0,0.5,0,0,9999,9999,9,999999999,0,0.0,0,0,0.0,0.0
1997,1,1,12,28,?9?9?9?9E0?9?9?9*9*9?9?9?9?9?9?9*9?9*9*9?9*9,30.68,23.49,64.2,0,0,0,0,0,0.5,0,0,9999,9999,9,999999999,0,0.0,0,0,0.0,0.0
1997,1,1,12,29,?9?9?9?9E0?9?9?9*9*9?9?9?9?9?9?9*9?9*9*9?9*9,30.68,23.49,64.2,0,0,0,0,0,0.5,0,0,9999,9999,9,999999999,0,0.0,0,0,0.0,0.0
1997,1,1,12,30,?9?9?9?9E0?9?9?9*9*9?9?9?9?9?9?9*9?9*9*9?9*9,30.68,23.49,64.2,0,0,0,0,0,0.5,0,0,9999,9999,9,999999999,0,0.0,0,0,0.0,0.0
1997,1,1,12,31,?9?9?9?9E0?9?9?9*9*9?9?9?9?9?9?9*9?9*9*9?9*9,30.68,23.49,64.2,0,0,0,0,0,0.5,0,0,9999,9999,9,999999999,0,0.0,0,0,0.0,0.0
1997,1,1,12,32,?9?9?9?9E0?9?9?9*9*9?9?9?9?9?9?9*9?9*9*9?9*9,30.68,23.49,64.2,0,0,0,0,0,0.5,0,0,9999,9999,9,999999999,0,0.0,0,0,0.0,0.0
1997,1,1,12,33,?9?9?9?9E0?9?9?9*9*9?9?9?9?9?9?9*9?9*9*9?9*9,30.68,23.49,64.2,0,0,0,0,0,0.5,0,0,9999,9999,9,999999999,0,0.0,0,0,0.0,0.0
1997,1,1,12,34,?9?9?9?9E0?9?9?9*9*9?9?9?9?9?9?9*9?9*9*9?9*9,30.68,23.49,64.2,0,0,0,0,0,0.5,0,0,9999,9999,9,999999999,0,0.0,0,0,0.0,0.0
1997,1,1,12,35,?9?9?9?9E0?9?9?9*9*9?9?9?9?9?9?9*9?9*9*9?9*9,30.68,23.49,64.2,0,0,0,0,0,0.5,0,0,9999,9999,9,999999999,0,0.0,0,0,0.0,0.0
1997,1,1,12,36,?9?9?9?9E0?9?9?9*9*9?9?9?9?9?9?9*9?9*9*9?9*9,30.68,23.49,64.2,0,0,0,0,0,0.5,0,0,9999,9999,9,999999999,0,0.0,0,0,0.0,0.0
1997,1,1,12,37,?9?9?9?9E0?9?9?9*9*9?9?9?9?9?9?9*9?9*9*9?9*9,30.68,23.49,64.2,0,0,0,0,0,0.5,0,0,9999,9999,9,999999999,0,0.0,0,0,0.0,0.0
1997,1,1,12,38,?9?9?9?9E0?9?9?9*9*9?9?9?9?9?9?9*9?9*9*9?9*9,30.68,23.49,64.2,0,0,0,0,0,0.5,0,0,9999,9999,9,999999999,0,0.0,0,0,0.0,0.0
1997,1,1,12,39,?9?9?9?9E0?9?9?9*9*9?9?9?9?9?9?9*9?9*9*9?9*9,30.68,23.49,64.2,0,0,0,0,0,0.5,0,0,9999,9999,9,999999999,0,0.0,0,0,0.0,0.0
1997,1,1,12,40,?9?9?9?9E0?9?9?9*9*9?9?9?9?9?9?9*9?9*9*9?9*9,30.68,23.49,64.2,0,0,0,0,0,0.5,0,0,9999,9999,9,999999999,0,0.0,0,0,0.0,0.0
1997,1,1,12,41,?9?9?9?9E0?9?9?9*9*9?9?9?9?9?9?9*9?9*9*9?9*9,30.68,23.49,64.2,0,0,0,0,0,0.5,0,0,9999,9999,9,999999999,0,0.0,0,0,0.0,0.0
1997,1,1,12,42,?9?9?9?9E0?9?9?9*9*9?9?9?9?9?9?9*9?9*9*9?9*9,30.68,23.49,64.2,0,0,0,0,0,0.5,0,0,9999,9999,9,999999999,0,0.0,0,0,0.0,0.0
1997,1,1,12,43,?9?9?9?9E0?9?9?9*9*9?9?9?9?9?9?9*9?9*9*9?9*9,30.68,23.49,64.2,0,0,0,0,0,0.5,0,0,9999,9999,9,999999999,0,0.0,0,0,0.0,0.0
1997,1,1,12,44,?9?9?9?9E0?9?9?9*9*9?9?9?9?9?9?9*9?9*9*9?9*9,30.68,23.49,64.2,0,0,0,0,0,0.5,0,0,9999,9999,9,999999999,0,0.0,0,0,0.0,0.0
1997,1,1,12,45,?9?9?9?9E0?9?9?9*9*9?9?9?9?9?9?9*9?9*9*9?9*9,30.68,23.49,64.2,0,0,0,0,0,0.5,0,0,9999,9999,9,999999999,0,0.0,0,0,0.0,0.0
1997,1,1,12,46,?9?9?9?9E0?9?9?9*9*9?9?9?9?9?9?9*9?9*9*9?9*9,30.68,23.49,64.2,0,0,0,0,0,0.5,0,0,9999,9999,9,999999999,0,0.0,0,0,0.0,0.0
1997,1,1,12,47,?9?9?9?9E0?9?9?9*9*9?9?9?9?9?9?9*9?9*9*9?9*9,30.68,23.49,64.2,0,0,0,0,0,0.5,0,0,9999,9999,9,999999999,0,0.0,0,0,0.0,0.0
1997,1,1,12,48,?9?9?9?9E0?9?9?9*9*9?9?9?9?9?9?9*9?9*9*9?9*9,30.68,23.49,64.2,0,0,0,0,0,0.5,0,0,9999,9999,9,999999999,0,0.0,0,0,0.0,0.0
1997,1,1,12,49,?9?9?9?9E0?9?9?9*9*9?9?9?9?9?9?9*9?9*9*9?9*9,30.68,23.49,64.2,0,0,0,0,0,0.5,0,0,9999,9999,9,999999999,0,0.0,0,0,0.0,0.0
1997,1,1,12,50,?9?9?9?9E0?9?9?9*9*9?9?9?9?9?9?9*9?9*9*9?9*9,30.68,23.49,64.2,0,0,0,0,0,0.5,0,0,9999,9999,9,999999999,0,0.0,0,0,0.0,0.0
1997,1,1,12,51,?9?9?9?9E0?9?9?9*9*9?9?9?9?9?9?9*9?9*9*9?9*9,30.68,23.49,64.2,0,0,0,0,0,0.5,0,0,9999,9999,9,999999999,0,0.0,0,0,0.0,0.0
1997,1,1,12,52,?9?9?9?9E0?9?9?9*9*9?9?9?9?9?9?9*9?9*9*9?9*9,30.68,23.49,64.2,0,0,0,0,0,0.5,0,0,9999,9999,9,999999999,0,0.0,0,0,0.0,0.0
1997,1,1,12,53,?9?9?9?9E0?9?9?9*9*9?9?9?9?9?9?9*9?9*9*9?9*9,30.68,23.49,64.2,0,0,0,0,0,0.5,0,0,9999,9999,9,999999999,0,0.0,0,0,0.0,0.0
1997,1,1,12,54,?9?9?9?9E0?9?9?9*9*9?9?9?9?9?9?9*9?9*9*9?9*9,30.68,23.49,64.2,0,0,0,0,0,0.5,0,0,9999,9999,9,999999999,0,0.0,0,0,0.0,0.0
1997,1,1,12,55,?9?9?9?9E0?9?9?9*9*9?9?9?9?9?9?9*9?9*9*9?9*9,30.68,23.49,64.2,0,0,0,0,0,0.5,0,0,9999,9999,9,999999999,0,0.0,0,0,0.0,0.0
1997,1,1,12,56,?9?9?9?9E0?9?9?9*9*9?9?9?9?9?9?9*9?9*9*9?9*9,30.68,23.49,64.2,0,0,0,0,0,0.5,0,0,9999,9999,9,999999999,0,0.0,0,0,0.0,0.0
1997,1,1,12,57,?9?9?9?9E0?9?9?9*9*9?9?9?9?9?9?9*9?9*9*9?9*9,30.68,23.49,64.2,0,0,0,0,0,0.5,0,0,9999,9999,9,999999999,0,0.0,0,0,0.0,0.0
1997,1,1,12,58,?9?9?9?9E0?9?9?9*9*9?9?9?9?9?9?9*9?9*9*9?9*9,30.68,23.49,64.2,0,0,0,0,0,0.5,0,0,9999,9999,9,999999999,0,0.0,0,0,0.0,0.0
1997,1,1,12,59,?9?9?9?9E0?9?9?9*9*9?9?9?9?9?9?9*9?9*9*9?9*9,30.68,23.49,64.2,0,0,0,0,0,0.5,0,0,9999,9999,9,999999999,0,0.0,0,0,0.0,0.0
1997,1,1,12,60,?9?9?9?9E0?9?9?9*9*9?9?9?9?9?9?9*9?9*9*9?9*9,30.68,23.49,64.2,0,0,0,0,0,0.5,0,0,9999,9999,9,999999999,0,0.0,0,0,0.0,0.0
1997,1,1,13,1,?9?9?9?9E0?9?9?9*9*9?9?9?9?9?9?9*9?9*9*9?9*9,30.68,23.49,64.2,0,0,0,0,0,0.5,0,0,9999,9999,9,999999999,0,0.0,0,0,0.0,0.0
1997,1,1,13,2,?9?9?9?9E0?9?9?9*9*9?9?9?9?9?9?9*9?9*9*9?9*9,30.68,23.49,64.2,0,0,0,0,0,0.5,0,0,9999,9999,9,999999999,0,0.0,0,0,0.0,0.0
1997,1,1,13,3,?9?9?9?9E0?9?9?9*9*9?9?9?9?9?9?9*9?9*9*9?9*9,30.68,23.49,64.2,0,0,0,0,0,0.5,0,0,9999,9999,9,999999999,0,0.0,0,0,0.0,0.0
1997,1,1,13,4,?9?9?9?9E0?9?9?9*9*9?9?9?9?9?9?9*9?9*9*9?9*9,30.68,23.49,64.2,0,0,0,0,0,0.5,0,0,9999,9999,9,999999999,0,0.0,0,0,0.0,0.0
1997,1,1,13,5,?9?9?9?9E0?9?9?9*9*9?9?9?9?9?9?9*9?9*9*9?9*9,30.68,23.49,64.2,0,0,0,0,0,0.5,0,0,9999,9999,9,999999999,0,0.0,0,0,0.0,0.0
1997,1,1,13,6,?9?9?9?9E0?9?9?9*9*9?9?9?9?9?9?9*9?9*9*9?9*9,30.68,23.49,64.2,0,0,0,0,0,0.5,0,0,9999,9999,9,999999999,0,0.0,0,0,0.0,0.0
1997,1,1,13,7,?9?9?9?9E0?9?9?9*9*9?9?9?9?9?9?9*9?9*9*9?9*9,30.68,23.49,64.2,0,0,0,0,0,0.5,0,0,9999,9999,9,999999999,0,0.0,0,0,0.0,0.0
1997,1,1,13,8,?9?9?9?9E0?9?9?9*9*9?9?9?9?9?9?9*9?9*9*9?9*9,30.68,23.49,64.2,0,0,0,0,0,0.5,0,0,9999,9999,9,999999999,0,0.0,0,0,0.0,0.0
1997,1,1,13,9,?9?9?9?9E0?9?9?9*9*9?9?9?9?9?9?9*9?9*9*9?9*9,30.68,23.49,64.2,0,0,0,0,0,0.5,0,0,9999,9999,9,999999999,0,0.0,0,0,0.0,0.0
1997,1,1,13,10,?9?9?9?9E0?9?9?9*9*9?9?9?9?9?9?9*9?9*9*9?9*9,30.68,23.49,64.2,0,0,0,0,0,0.5,0,0,9999,9999,9,999999999,0,0.0,0,0,0.0,0.0
1997,1,1,13,11,?9?9?9?9E0?9?9?9*9*9?9?9?9?9?9?9*9?9*9*9?9*9,30.68,23.49,64.2,0,0,0,0,0,0.5,0,0,9999,9999,9,999999999,0,0.0,0,0,0.0,0.0
1997,1,1,13,12,?9?9?9?9E0?9?9?9*9*9?9?9?9?9?9?9*9?9*9*9?9*9,30.68,23.49,64.2,0,0,0,0,0,0.5,0,0,9999,9999,9,999999999,0,0.0,0,0,0.0,0.0
1997,1,1,13,13,?9?9?9?9E0?9?9?9*9*9?9?9?9?9?9?9*9?9*9*9?9*9,30.68,23.49,64.2,0,0,0,0,0,0.5,0,0,9999,9999,9,999999999,0,0.0,0,0,0.0,0.0
1997,1,1,13,14,?9?9?9?9E0?9?9?9*9*9?9?9?9?9?9?9*9?9*9*9?9*9,30.68,23.49,64.2,0,0,0,0,0,0.5,0,0,9999,9999,9,999999999,0,0.0,0,0,0.0,0.0
1997,1,1,13,15,?9?9?9?9E0?9?9?9*9*9?9?9?9?9?9?9*9?9*9*9?9*9,30.68,23.49,64.2,0,0,0,0,0,0.5,0,0,9999,9999,9,999999999,0,0.0,0,0,0.0,0.0
1997,1,1,13,16,?9?9?9?9E0?9?9?9*9*9?9?9?9?9?9?9*9?9*9*9?9*9,30.68,23.49,64.2,0,0,0,0,0,0.5,0,0,9999,9999,9,999999999,0,0.0,0,0,0.0,0.0
1997,1,1,13,17,?9?9?9?9E0?9?9?9*9*9?9?9?9?9?9?9*9?9*9*9?9*9,30.68,23.49,64.2,0,0,0,0,0,0.5,0,0,9999,9999,9,999999999,0,0.0,0,0,0.0,0.0
1997,1,1,13,18,?9?9?9?9E0?9?9?9*9*9?9?9?9?9?9?9*9?9*9*9?9*9,30.68,23.49,64.2,0,0,0,0,0,0.5,0,0,9999,9999,9,999999999,0,0.0,0,0,0.0,0.0
1997,1,1,13,19,?9?9?9?9E0?9?9?9*9*9?9?9?9?9?9?9*9?9*9*9?9*9,30.68,23.49,64.2,0,0,0,0,0,0.5,0,0,9999,9999,9,999999999,0,0.0,0,0,0.0,0.0
1997,1,1,13,20,?9?9?9?9E0?9?9?9*9*9?9?9?9?9?9?9*9?9*9*9?9*9,30.68,23.49,64.2,0,0,0,0,0,0.5,0,0,9999,9999,9,999999999,0,0.0,0,0,0.0,0.0
1997,1,1,13,21,?9?9?9?9E0?9?9?9*9*9?9?9?9?9?9?9*9?9*9*9?9*9,30.68,23.49,64.2,0,0,0,0,0,0.5,0,0,9999,9999,9,999999999,0,0.0,0,0,0.0,0.0
1997,1,1,13,22,?9?9?9?9E0?9?9?9*9*9?9?9?9?9?9?9*9?9*9*9?9*9,30.68,23.49,64.2,0,0,0,0,0,0.5,0,0,9999,9999,9,999999999,0,0.0,0,0,0.0,0.0
1997,1,1,13,23,?9?9?9?9E0?9?9?9*9*9?9?9?9?9?9?9*9?9*9*9?9*9,30.68,23.49,64.2,0,0,0,0,0,0.5,0,0,9999,9999,9,999999999,0,0.0,0,0,0.0,0.0
1997,1,1,13,24,?9?9?9?9E0?9?9?9*9*9?9?9?9?9?9?9*9?9*9*9?9*9,30.68,23.49,64.2,0,0,0,0,0,0.5,0,0,9999,9999,9,999999999,0,0.0,0,0,0.0,0.0
1997,1,1,13,25,?9?9?9?9E0?9?9?9*9*9?9?9?9?9?9?9*9?9*9*9?9*9,30.68,23.49,64.2,0,0,0,0,0,0.5,0,0,9999,9999,9,999999999,0,0.0,0,0,0.0,0.0
1997,1,1,13,26,?9?9?9?9E0?9?9?9*9*9?9?9?9?9?9?9*9?9*9*9?9*9,30.68,23.49,64.2,0,0,0,0,0,0.5,0,0,9999,9999,9,999999999,0,0.0,0,0,0.0,0.0
1997,1,1,13,27,?9?9?9?9E0?9?9?9*9*9?9?9?9?9?9?9*9?9*9*9?9*9,30.68,23.49,64.2,0,0,0,0,0,0.5,0,0,9999,9999,9,999999999,0,0.0,0,0,0.0,0.0
1997,1,1,13,28,?9?9?9?9E0?9?9?9*9*9?9?9?9?9?9?9*9?9*9*9?9*9,30.68,23.49,64.2,0,0,0,0,0,0.5,0,0,9999,9999,9,999999999,0,0.0,0,0,0.0,0.0
1997,1,1,13,29,?9?9?9?9E0?9?9?9*9*9?9?9?9?9?9?9*9?9*9*9?9*9,30.68,23.49,64.2,0,0,0,0,0,0.5,0,0,9999,9999,9,999999999,0,0.0,0,0,0.0,0.0
1997,1,1,13,30,?9?9?9?9E0?9?9?9*9*9?9?9?9?9?9?9*9?9*9*9?9*9,30.68,23.49,64.2,0,0,0,0,0,0.5,0,0,9999,9999,9,999999999,0,0.0,0,0,0.0,0.0
1997,1,1,13,31,?9?9?9?9E0?9?9?9*9*9?9?9?9?9?9?9*9?9*9*9?9*9,30.68,23.49,64.2,0,0,0,0,0,0.5,0,0,9999,9999,9,999999999,0,0.0,0,0,0.0,0.0
1997,1,1,13,32,?9?9?9?9E0?9?9?9*9*9?9?9?9?9?9?9*9?9*9*9?9*9,30.68,23.49,64.2,0,0,0,0,0,0.5,0,0,9999,9999,9,999999999,0,0.0,0,0,0.0,0.0
1997,1,1,13,33,?9?9?9?9E0?9?9?9*9*9?9?9?9?9?9?9*9?9*9*9?9*9,30.68,23.49,64.2,0,0,0,0,0,0.5,0,0,9999,9999,9,999999999,0,0.0,0,0,0.0,0.0
1997,1,1,13,34,?9?9?9?9E0?9?9?9*9*9?9?9?9?9?9?9*9?9*9*9?9*9,30.68,23.49,64.2,0,0,0,0,0,0.5,0,0,9999,9999,9,999999999,0,0.0,0,0,0.0,0.0
1997,1,1,13,35,?9?9?9?9E0?9?9?9*9*9?9?9?9?9?9?9*9?9*9*9?9*9,30.68,23.49,64.2,0,0,0,0,0,0.5,0,0,9999,9999,9,999999999,0,0.0,0,0,0.0,0.0
1997,1,1,13,36,?9?9?9?9E0?9?9?9*9*9?9?9?9?9?9?9*9?9*9*9?9*9,30.68,23.49,64.2,0,0,0,0,0,0.5,0,0,9999,9999,9,999999999,0,0.0,0,0,0.0,0.0
1997,1,1,13,37,?9?9?9?9E0?9?9?9*9*9?9?9?9?9?9?9*9?9*9*9?9*9,30.68,23.49,64.2,0,0,0,0,0,0.5,0,0,9999,9999,9,999999999,0,0.0,0,0,0.0,0.0
1997,1,1,13,38,?9?9?9?9E0?9?9?9*9*9?9?9?9?9?9?9*9?9*9*9?9*9,30.68,23.49,64.2,0,0,0,0,0,0.5,0,0,9999,9999,9,999999999,0,0.0,0,0,0.0,0.0
1997,1,1,13,39,?9?9?9?9E0?9?9?9*9*9?9?9?9?9?9?9*9?9*9*9?9*9,30.68,23.49,64.2,0,0,0,0,0,0.5,0,0,9999,9999,9,999999999,0,0.0,0,0,0.0,0.0
1997,1,1,13,40,?9?9?9?9E0?9?9?9*9*9?9?9?9?9?9?9*9?9*9*9?9*9,30.68,23.49,64.2,0,0,0,0,0,0.5,0,0,9999,9999,9,999999999,0,0.0,0,0,0.0,0.0
1997,1,1,13,41,?9?9?9?9E0?9?9?9*9*9?9?9?9?9?9?9*9?9*9*9?9*9,30.68,23.49,64.2,0,0,0,0,0,0.5,0,0,9999,9999,9,999999999,0,0.0,0,0,0.0,0.0
1997,1,1,13,42,?9?9?9?9E0?9?9?9*9*9?9?9?9?9?9?9*9?9*9*9?9*9,30.68,23.49,64.2,0,0,0,0,0,0.5,0,0,9999,9999,9,999999999,0,0.0,0,0,0.0,0.0
1997,1,1,13,43,?9?9?9?9E0?9?9?9*9*9?9?9?9?9?9?9*9?9*9*9?9*9,30.68,23.49,64.2,0,0,0,0,0,0.5,0,0,9999,9999,9,999999999,0,0.0,0,0,0.0,0.0
1997,1,1,13,44,?9?9?9?9E0?9?9?9*9*9?9?9?9?9?9?9*9?9*9*9?9*9,30.68,23.49,64.2,0,0,0,0,0,0.5,0,0,9999,9999,9,999999999,0,0.0,0,0,0.0,0.0
1997,1,1,13,45,?9?9?9?9E0?9?9?9*9*9?9?9?9?9?9?9*9?9*9*9?9*9,30.68,23.49,64.2,0,0,0,0,0,0.5,0,0,9999,9999,9,999999999,0,0.0,0,0,0.0,0.0
1997,1,1,13,46,?9?9?9?9E0?9?9?9*9*9?9?9?9?9?9?9*9?9*9*9?9*9,30.68,23.49,64.2,0,0,0,0,0,0.5,0,0,9999,9999,9,999999999,0,0.0,0,0,0.0,0.0
1997,1,1,13,47,?9?9?9?9E0?9?9?9*9*9?9?9?9?9?9?9*9?9*9*9?9*9,30.68,23.49,64.2,0,0,0,0,0,0.5,0,0,9999,9999,9,999999999,0,0.0,0,0,0.0,0.0
1997,1,1,13,48,?9?9?9?9E0?9?9?9*9*9?9?9?9?9?9?9*9?9*9*9?9*9,30.68,23.49,64.2,0,0,0,0,0,0.5,0,0,9999,9999,9,999999999,0,0.0,0,0,0.0,0.0
1997,1,1,13,49,?9?9?9?9E0?9?9?9*9*9?9?9?9?9?9?9*9?9*9*9?9*9,30.68,23.49,64.2,0,0,0,0,0,0.5,0,0,9999,9999,9,999999999,0,0.0,0,0,0.0,0.0
1997,1,1,13,50,?9?9?9?9E0?9?9?9*9*9?9?9?9?9?9?9*9?9*9*9?9*9,30.68,23.49,64.2,0,0,0,0,0,0.5,0,0,9999,9999,9,999999999,0,0.0,0,0,0.0,0.0
1997,1,1,13,51,?9?9?9?9E0?9?9?9*9*9?9?9?9?9?9?9*9?9*9*9?9*9,30.68,23.49,64.2,0,0,0,0,0,0.5,0,0,9999,9999,9,999999999,0,0.0,0,0,0.0,0.0
1997,1,1,13,52,?9?9?9?9E0?9?9?9*9*9?9?9?9?9?9?9*9?9*9*9?9*9,30.68,23.49,64.2,0,0,0,0,0,0.5,0,0,9999,9999,9,999999999,0,0.0,0,0,0.0,0.0
1997,1,1,13,53,?9?9?9?9E0?9?9?9*9*9?9?9?9?9?9?9*9?9*9*9?9*9,30.68,23.49,64.2,0,0,0,0,0,0.5,0,0,9999,9999,9,999999999,0,0.0,0,0,0.0,0.0
1997,1,1,13,54,?9?9?9?9E0?9?9?9*9*9?9?9?9?9?9?9*9?9*9*9?9*9,30.68,23.49,64.2,0,0,0,0,0,0.5,0,0,9999,9999,9,999999999,0,0.0,0,0,0.0,0.0
1997,1,1,13,55,?9?9?9?9E0?9?9?9*9*9?9?9?9?9?9?9*9?9*9*9?9*9,30.68,23.49,64.2,0,0,0,0,0,0.5,0,0,9999,9999,9,999999999,0,0.0,0,0,0.0,0.0
1997,1,1,13,56,?9?9?9?9E0?9?9?9*9*9?9?9?9?9?9?9*9?9*9*9?9*9,30.68,23.49,64.2,0,0,0,0,0,0.5,0,0,9999,9999,9,999999999,0,0.0,0,0,0.0,0.0
1997,1,1,13,57,?9?9?9?9E0?9?9?9*9*9?9?9?9?9?9?9*9?9*9*9?9*9,30.68,23.49,64.2,0,0,0,0,0,0.5,0,0,9999,9999,9,999999999,0,0.0,0,0,0.0,0.0
1997,1,1,13,58,?9?9?9?9E0?9?9?9*9*9?9?9?9?9?9?9*9?9*9*9?9*9,30.68,23.49,64.2,0,0,0,0,0,0.5,0,0,9999,9999,9,999999999,0,0.0,0,0,0.0,0.0
1997,1,1,13,59,?9?9?9?9E0?9?9?9*9*9?9?9?9?9?9?9*9?9*9*9?9*9,30.68,23.49,64.2,0,0,0,0,0,0.5,0,0,9999,9999,9,999999999,0,0.0,0,0,0.0,0.0
1997,1,1,13,60,?9?9?9?9E0?9?9?9*9*9?9?9?9?9?9?9*9?9*9*9?9*9,30.68,23.49,64.2,0,0,0,0,0,0.5,0,0,9999,9999,9,999999999,0,0.0,0,0,0.0,0.0
1997,1,1,14,1,?9?9?9?9E0?9?9?9*9*9?9?9?9?9?9?9*9?9*9*9?9*9,30.68,23.49,64.2,0,0,0,0,0,0.5,0,0,9999,9999,9,999999999,0,0.0,0,0,0.0,0.0
1997,1,1,14,2,?9?9?9?9E0?9?9?9*9*9?9?9?9?9?9?9*9?9*9*9?9*9,30.68,23.49,64.2,0,0,0,0,0,0.5,0,0,9999,9999,9,999999999,0,0.0,0,0,0.0,0.0
1997,1,1,14,3,?9?9?9?9E0?9?9?9*9*9?9?9?9?9?9?9*9?9*9*9?9*9,30.68,23.49,64.2,0,0,0,0,0,0.5,0,0,9999,9999,9,999999999,0,0.0,0,0,0.0,0.0
1997,1,1,14,4,?9?9?9?9E0?9?9?9*9*9?9?9?9?9?9?9*9?9*9*9?9*9,30.68,23.49,64.2,0,0,0,0,0,0.5,0,0,9999,9999,9,999999999,0,0.0,0,0,0.0,0.0
1997,1,1,14,5,?9?9?9?9E0?9?9?9*9*9?9?9?9?9?9?9*9?9*9*9?9*9,30.68,23.49,64.2,0,0,0,0,0,0.5,0,0,9999,9999,9,999999999,0,0.0,0,0,0.0,0.0
1997,1,1,14,6,?9?9?9?9E0?9?9?9*9*9?9?9?9?9?9?9*9?9*9*9?9*9,30.68,23.49,64.2,0,0,0,0,0,0.5,0,0,9999,9999,9,999999999,0,0.0,0,0,0.0,0.0
1997,1,1,14,7,?9?9?9?9E0?9?9?9*9*9?9?9?9?9?9?9*9?9*9*9?9*9,30.68,23.49,64.2,0,0,0,0,0,0.5,0,0,9999,9999,9,999999999,0,0.0,0,0,0.0,0.0
1997,1,1,14,8,?9?9?9?9E0?9?9?9*9*9?9?9?9?9?9?9*9?9*9*9?9*9,30.68,23.49,64.2,0,0,0,0,0,0.5,0,0,9999,9999,9,999999999,0,0.0,0,0,0.0,0.0
1997,1,1,14,9,?9?9?9?9E0?9?9?9*9*9?9?9?9?9?9?9*9?9*9*9?9*9,30.68,23.49,64.2,0,0,0,0,0,0.5,0,0,9999,9999,9,999999999,0,0.0,0,0,0.0,0.0
1997,1,1,14,10,?9?9?9?9E0?9?9?9*9*9?9?9?9?9?9?9*9?9*9*9?9*9,30.68,23.49,64.2,0,0,0,0,0,0.5,0,0,9999,9999,9,999999999,0,0.0,0,0,0.0,0.0
1997,1,1,14,11,?9?9?9?9E0?9?9?9*9*9?9?9?9?9?9?9*9?9*9*9?9*9,30.68,23.49,64.2,0,0,0,0,0,0.5,0,0,9999,9999,9,999999999,0,0.0,0,0,0.0,0.0
1997,1,1,14,12,?9?9?9?9E0?9?9?9*9*9?9?9?9?9?9?9*9?9*9*9?9*9,30.68,23.49,64.2,0,0,0,0,0,0.5,0,0,9999,9999,9,999999999,0,0.0,0,0,0.0,0.0
1997,1,1,14,13,?9?9?9?9E0?9?9?9*9*9?9?9?9?9?9?9*9?9*9*9?9*9,30.68,23.49,64.2,0,0,0,0,0,0.5,0,0,9999,9999,9,999999999,0,0.0,0,0,0.0,0.0
1997,1,1,14,14,?9?9?9?9E0?9?9?9*9*9?9?9?9?9?9?9*9?9*9*9?9*9,30.68,23.49,64.2,0,0,0,0,0,0.5,0,0,9999,9999,9,999999999,0,0.0,0,0,0.0,0.0
1997,1,1,14,15,?9?9?9?9E0?9?9?9*9*9?9?9?9?9?9?9*9?9*9*9?9*9,30.68,23.49,64.2,0,0,0,0,0,0.5,0,0,9999,9999,9,999999999,0,0.0,0,0,0.0,0.0
1997,1,1,14,16,?9?9?9?9E0?9?9?9*9*9?9?9?9?9?9?9*9?9*9*9?9*9,30.68,23.49,64.2,0,0,0,0,0,0.5,0,0,9999,9999,9,999999999,0,0.0,0,0,0.0,0.0
1997,1,1,14,17,?9?9?9?9E0?9?9?9*9*9?9?9?9?9?9?9*9?9*9*9?9*9,30.68,23.49,64.2,0,0,0,0,0,0.5,0,0,9999,9999,9,999999999,0,0.0,0,0,0.0,0.0
1997,1,1,14,18,?9?9?9?9E0?9?9?9*9*9?9?9?9?9?9?9*9?9*9*9?9*9,30.68,23.49,64.2,0,0,0,0,0,0.5,0,0,9999,9999,9,999999999,0,0.0,0,0,0.0,0.0
1997,1,1,14,19,?9?9?9?9E0?9?9?9*9*9?9?9?9?9?9?9*9?9*9*9?9*9,30.68,23.49,64.2,0,0,0,0,0,0.5,0,0,9999,9999,9,999999999,0,0.0,0,0,0.0,0.0
1997,1,1,14,20,?9?9?9?9E0?9?9?9*9*9?9?9?9?9?9?9*9?9*9*9?9*9,30.68,23.49,64.2,0,0,0,0,0,0.5,0,0,9999,9999,9,999999999,0,0.0,0,0,0.0,0.0
1997,1,1,14,21,?9?9?9?9E0?9?9?9*9*9?9?9?9?9?9?9*9?9*9*9?9*9,30.68,23.49,64.2,0,0,0,0,0,0.5,0,0,9999,9999,9,999999999,0,0.0,0,0,0.0,0.0
1997,1,1,14,22,?9?9?9?9E0?9?9?9*9*9?9?9?9?9?9?9*9?9*9*9?9*9,30.68,23.49,64.2,0,0,0,0,0,0.5,0,0,9999,9999,9,999999999,0,0.0,0,0,0.0,0.0
1997,1,1,14,23,?9?9?9?9E0?9?9?9*9*9?9?9?9?9?9?9*9?9*9*9?9*9,30.68,23.49,64.2,0,0,0,0,0,0.5,0,0,9999,9999,9,999999999,0,0.0,0,0,0.0,0.0
1997,1,1,14,24,?9?9?9?9E0?9?9?9*9*9?9?9?9?9?9?9*9?9*9*9?9*9,30.68,23.49,64.2,0,0,0,0,0,0.5,0,0,9999,9999,9,999999999,0,0.0,0,0,0.0,0.0
1997,1,1,14,25,?9?9?9?9E0?9?9?9*9*9?9?9?9?9?9?9*9?9*9*9?9*9,30.68,23.49,64.2,0,0,0,0,0,0.5,0,0,9999,9999,9,999999999,0,0.0,0,0,0.0,0.0
1997,1,1,14,26,?9?9?9?9E0?9?9?9*9*9?9?9?9?9?9?9*9?9*9*9?9*9,30.68,23.49,64.2,0,0,0,0,0,0.5,0,0,9999,9999,9,999999999,0,0.0,0,0,0.0,0.0
1997,1,1,14,27,?9?9?9?9E0?9?9?9*9*9?9?9?9?9?9?9*9?9*9*9?9*9,30.68,23.49,64.2,0,0,0,0,0,0.5,0,0,9999,9999,9,999999999,0,0.0,0,0,0.0,0.0
1997,1,1,14,28,?9?9?9?9E0?9?9?9*9*9?9?9?9?9?9?9*9?9*9*9?9*9,30.68,23.49,64.2,0,0,0,0,0,0.5,0,0,9999,9999,9,999999999,0,0.0,0,0,0.0,0.0
1997,1,1,14,29,?9?9?9?9E0?9?9?9*9*9?9?9?9?9?9?9*9?9*9*9?9*9,30.68,23.49,64.2,0,0,0,0,0,0.5,0,0,9999,9999,9,999999999,0,0.0,0,0,0.0,0.0
1997,1,1,14,30,?9?9?9?9E0?9?9?9*9*9?9?9?9?9?9?9*9?9*9*9?9*9,30.68,23.49,64.2,0,0,0,0,0,0.5,0,0,9999,9999,9,999999999,0,0.0,0,0,0.0,0.0
1997,1,1,14,31,?9?9?9?9E0?9?9?9*9*9?9?9?9?9?9?9*9?9*9*9?9*9,30.68,23.49,64.2,0,0,0,0,0,0.5,0,0,9999,9999,9,999999999,0,0.0,0,0,0.0,0.0
1997,1,1,14,32,?9?9?9?9E0?9?9?9*9*9?9?9?9?9?9?9*9?9*9*9?9*9,30.68,23.49,64.2,0,0,0,0,0,0.5,0,0,9999,9999,9,999999999,0,0.0,0,0,0.0,0.0
1997,1,1,14,33,?9?9?9?9E0?9?9?9*9*9?9?9?9?9?9?9*9?9*9*9?9*9,30.68,23.49,64.2,0,0,0,0,0,0.5,0,0,9999,9999,9,999999999,0,0.0,0,0,0.0,0.0
1997,1,1,14,34,?9?9?9?9E0?9?9?9*9*9?9?9?9?9?9?9*9?9*9*9?9*9,30.68,23.49,64.2,0,0,0,0,0,0.5,0,0,9999,9999,9,999999999,0,0.0,0,0,0.0,0.0
1997,1,1,14,35,?9?9?9?9E0?9?9?9*9*9?9?9?9?9?9?9*9?9*9*9?9*9,30.68,23.49,64.2,0,0,0,0,0,0.5,0,0,9999,9999,9,999999999,0,0.0,0,0,0.0,0.0
1997,1,1,14,36,?9?9?9?9E0?9?9?9*9*9?9?9?9?9?9?9*9?9*9*9?9*9,30.68,23.49,64.2,0,0,0,0,0,0.5,0,0,9999,9999,9,999999999,0,0.0,0,0,0.0,0.0
1997,1,1,14,37,?9?9?9?9E0?9?9?9*9*9?9?9?9?9?9?9*9?9*9*9?9*9,30.68,23.49,64.2,0,0,0,0,0,0.5,0,0,9999,9999,9,999999999,0,0.0,0,0,0.0,0.0
1997,1,1,14,38,?9?9?9?9E0?9?9?9*9*9?9?9?9?9?9?9*9?9*9*9?9*9,30.68,23.49,64.2,0,0,0,0,0,0.5,0,0,9999,9999,9,999999999,0,0.0,0,0,0.0,0.0
1997,1,1,14,39,?9?9?9?9E0?9?9?9*9*9?9?9?9?9?9?9*9?9*9*9?9*9,30.68,23.49,64.2,0,0,0,0,0,0.5,0,0,9999,9999,9,999999999,0,0.0,0,0,0.0,0.0
1997,1,1,14,40,?9?9?9?9E0?9?9?9*9*9?9?9?9?9?9?9*9?9*9*9?9*9,30.68,23.49,64.2,0,0,0,0,0,0.5,0,0,9999,9999,9,999999999,0,0.0,0,0,0.0,0.0
1997,1,1,14,41,?9?9?9?9E0?9?9?9*9*9?9?9?9?9?9?9*9?9*9*9?9*9,30.68,23.49,64.2,0,0,0,0,0,0.5,0,0,9999,9999,9,999999999,0,0.0,0,0,0.0,0.0
1997,1,1,14,42,?9?9?9?9E0?9?9?9*9*9?9?9?9?9?9?9*9?9*9*9?9*9,30.68,23.49,64.2,0,0,0,0,0,0.5,0,0,9999,9999,9,999999999,0,0.0,0,0,0.0,0.0
1997,1,1,14,43,?9?9?9?9E0?9?9?9*9*9?9?9?9?9?9?9*9?9*9*9?9*9,30.68,23.49,64.2,0,0,0,0,0,0.5,0,0,9999,9999,9,999999999,0,0.0,0,0,0.0,0.0
1997,1,1,14,44,?9?9?9?9E0?9?9?9*9*9?9?9?9?9?9?9*9?9*9*9?9*9,30.68,23.49,64.2,0,0,0,0,0,0.5,0,0,9999,9999,9,999999999,0,0.0,0,0,0.0,0.0
1997,1,1,14,45,?9?9?9?9E0?9?9?9*9*9?9?9?9?9?9?9*9?9*9*9?9*9,30.68,23.49,64.2,0,0,0,0,0,0.5,0,0,9999,9999,9,999999999,0,0.0,0,0,0.0,0.0
1997,1,1,14,46,?9?9?9?9E0?9?9?9*9*9?9?9?9?9?9?9*9?9*9*9?9*9,30.68,23.49,64.2,0,0,0,0,0,0.5,0,0,9999,9999,9,999999999,0,0.0,0,0,0.0,0.0
1997,1,1,14,47,?9?9?9?9E0?9?9?9*9*9?9?9?9?9?9?9*9?9*9*9?9*9,30.68,23.49,64.2,0,0,0,0,0,0.5,0,0,9999,9999,9,999999999,0,0.0,0,0,0.0,0.0
1997,1,1,14,48,?9?9?9?9E0?9?9?9*9*9?9?9?9?9?9?9*9?9*9*9?9*9,30.68,23.49,64.2,0,0,0,0,0,0.5,0,0,9999,9999,9,999999999,0,0.0,0,0,0.0,0.0
1997,1,1,14,49,?9?9?9?9E0?9?9?9*9*9?9?9?9?9?9?9*9?9*9*9?9*9,30.68,23.49,64.2,0,0,0,0,0,0.5,0,0,9999,9999,9,999999999,0,0.0,0,0,0.0,0.0
1997,1,1,14,50,?9?9?9?9E0?9?9?9*9*9?9?9?9?9?9?9*9?9*9*9?9*9,30.68,23.49,64.2,0,0,0,0,0,0.5,0,0,9999,9999,9,999999999,0,0.0,0,0,0.0,0.0
1997,1,1,14,51,?9?9?9?9E0?9?9?9*9*9?9?9?9?9?9?9*9?9*9*9?9*9,30.68,23.49,64.2,0,0,0,0,0,0.5,0,0,9999,9999,9,999999999,0,0.0,0,0,0.0,0.0
1997,1,1,14,52,?9?9?9?9E0?9?9?9*9*9?9?9?9?9?9?9*9?9*9*9?9*9,30.68,23.49,64.2,0,0,0,0,0,0.5,0,0,9999,9999,9,999999999,0,0.0,0,0,0.0,0.0
1997,1,1,14,53,?9?9?9?9E0?9?9?9*9*9?9?9?9?9?9?9*9?9*9*9?9*9,30.68,23.49,64.2,0,0,0,0,0,0.5,0,0,9999,9999,9,999999999,0,0.0,0,0,0.0,0.0
1997,1,1,14,54,?9?9?9?9E0?9?9?9*9*9?9?9?9?9?9?9*9?9*9*9?9*9,30.68,23.49,64.2,0,0,0,0,0,0.5,0,0,9999,9999,9,999999999,0,0.0,0,0,0.0,0.0
1997,1,1,14,55,?9?9?9?9E0?9?9?9*9*9?9?9?9?9?9?9*9?9*9*9?9*9,30.68,23.49,64.2,0,0,0,0,0,0.5,0,0,9999,9999,9,999999999,0,0.0,0,0,0.0,0.0
1997,1,1,14,56,?9?9?9?9E0?9?9?9*9*9?9?9?9?9?9?9*9?9*9*9?9*9,30.68,23.49,64.2,0,0,0,0,0,0.5,0,0,9999,9999,9,999999999,0,0.0,0,0,0.0,0.0
1997,1,1,14,57,?9?9?9?9E0?9?9?9*9*9?9?9?9?9?9?9*9?9*9*9?9*9,30.68,23.49,64.2,0,0,0,0,0,0.5,0,0,9999,9999,9,999999999,0,0.0,0,0,0.0,0.0
1997,1,1,14,58,?9?9?9?9E0?9?9?9*9*9?9?9?9?9?9?9*9?9*9*9?9*9,30.68,23.49,64.2,0,0,0,0,0,0.5,0,0,9999,9999,9,999999999,0,0.0,0,0,0.0,0.0
1997,1,1,14,59,?9?9?9?9E0?9?9?9*9*9?9?9?9?9?9?9*9?9*9*9?9*9,30.68,23.49,64.2,0,0,0,0,0,0.5,0,0,9999,9999,9,999999999,0,0.0,0,0,0.0,0.0
1997,1,1,14,60,?9?9?9?9E0?9?9?9*9*9?9?9?9?9?9?9*9?9*9*9?9*9,30.68,23.49,64.2,0,0,0,0,0,0.5,0,0,9999,9999,9,999999999,0,0.0,0,0,0.0,0.0
1997,1,1,15,1,?9?9?9?9E0?9?9?9*9*9?9?9?9?9?9?9*9?9*9*9?9*9,30.68,23.49,64.2,0,0,0,0,0,0.5,0,0,9999,9999,9,999999999,0,0.0,0,0,0.0,0.0
1997,1,1,15,2,?9?9?9?9E0?9?9?9*9*9?9?9?9?9?9?9*9?9*9*9?9*9,30.68,23.49,64.2,0,0,0,0,0,0.5,0,0,9999,9999,9,999999999,0,0.0,0,0,0.0,0.0
1997,1,1,15,3,?9?9?9?9E0?9?9?9*9*9?9?9?9?9?9?9*9?9*9*9?9*9,30.68,23.49,64.2,0,0,0,0,0,0.5,0,0,9999,9999,9,999999999,0,0.0,0,0,0.0,0.0
1997,1,1,15,4,?9?9?9?9E0?9?9?9*9*9?9?9?9?9?9?9*9?9*9*9?9*9,30.68,23.49,64.2,0,0,0,0,0,0.5,0,0,9999,9999,9,999999999,0,0.0,0,0,0.0,0.0
1997,1,1,15,5,?9?9?9?9E0?9?9?9*9*9?9?9?9?9?9?9*9?9*9*9?9*9,30.68,23.49,64.2,0,0,0,0,0,0.5,0,0,9999,9999,9,999999999,0,0.0,0,0,0.0,0.0
1997,1,1,15,6,?9?9?9?9E0?9?9?9*9*9?9?9?9?9?9?9*9?9*9*9?9*9,30.68,23.49,64.2,0,0,0,0,0,0.5,0,0,9999,9999,9,999999999,0,0.0,0,0,0.0,0.0
1997,1,1,15,7,?9?9?9?9E0?9?9?9*9*9?9?9?9?9?9?9*9?9*9*9?9*9,30.68,23.49,64.2,0,0,0,0,0,0.5,0,0,9999,9999,9,999999999,0,0.0,0,0,0.0,0.0
1997,1,1,15,8,?9?9?9?9E0?9?9?9*9*9?9?9?9?9?9?9*9?9*9*9?9*9,30.68,23.49,64.2,0,0,0,0,0,0.5,0,0,9999,9999,9,999999999,0,0.0,0,0,0.0,0.0
1997,1,1,15,9,?9?9?9?9E0?9?9?9*9*9?9?9?9?9?9?9*9?9*9*9?9*9,30.68,23.49,64.2,0,0,0,0,0,0.5,0,0,9999,9999,9,999999999,0,0.0,0,0,0.0,0.0
1997,1,1,15,10,?9?9?9?9E0?9?9?9*9*9?9?9?9?9?9?9*9?9*9*9?9*9,30.68,23.49,64.2,0,0,0,0,0,0.5,0,0,9999,9999,9,999999999,0,0.0,0,0,0.0,0.0
1997,1,1,15,11,?9?9?9?9E0?9?9?9*9*9?9?9?9?9?9?9*9?9*9*9?9*9,30.68,23.49,64.2,0,0,0,0,0,0.5,0,0,9999,9999,9,999999999,0,0.0,0,0,0.0,0.0
1997,1,1,15,12,?9?9?9?9E0?9?9?9*9*9?9?9?9?9?9?9*9?9*9*9?9*9,30.68,23.49,64.2,0,0,0,0,0,0.5,0,0,9999,9999,9,999999999,0,0.0,0,0,0.0,0.0
1997,1,1,15,13,?9?9?9?9E0?9?9?9*9*9?9?9?9?9?9?9*9?9*9*9?9*9,30.68,23.49,64.2,0,0,0,0,0,0.5,0,0,9999,9999,9,999999999,0,0.0,0,0,0.0,0.0
1997,1,1,15,14,?9?9?9?9E0?9?9?9*9*9?9?9?9?9?9?9*9?9*9*9?9*9,30.68,23.49,64.2,0,0,0,0,0,0.5,0,0,9999,9999,9,999999999,0,0.0,0,0,0.0,0.0
1997,1,1,15,15,?9?9?9?9E0?9?9?9*9*9?9?9?9?9?9?9*9?9*9*9?9*9,30.68,23.49,64.2,0,0,0,0,0,0.5,0,0,9999,9999,9,999999999,0,0.0,0,0,0.0,0.0
1997,1,1,15,16,?9?9?9?9E0?9?9?9*9*9?9?9?9?9?9?9*9?9*9*9?9*9,30.68,23.49,64.2,0,0,0,0,0,0.5,0,0,9999,9999,9,999999999,0,0.0,0,0,0.0,0.0
1997,1,1,15,17,?9?9?9?9E0?9?9?9*9*9?9?9?9?9?9?9*9?9*9*9?9*9,30.68,23.49,64.2,0,0,0,0,0,0.5,0,0,9999,9999,9,999999999,0,0.0,0,0,0.0,0.0
1997,1,1,15,18,?9?9?9?9E0?9?9?9*9*9?9?9?9?9?9?9*9?9*9*9?9*9,30.68,23.49,64.2,0,0,0,0,0,0.5,0,0,9999,9999,9,999999999,0,0.0,0,0,0.0,0.0
1997,1,1,15,19,?9?9?9?9E0?9?9?9*9*9?9?9?9?9?9?9*9?9*9*9?9*9,30.68,23.49,64.2,0,0,0,0,0,0.5,0,0,9999,9999,9,999999999,0,0.0,0,0,0.0,0.0
1997,1,1,15,20,?9?9?9?9E0?9?9?9*9*9?9?9?9?9?9?9*9?9*9*9?9*9,30.68,23.49,64.2,0,0,0,0,0,0.5,0,0,9999,9999,9,999999999,0,0.0,0,0,0.0,0.0
1997,1,1,15,21,?9?9?9?9E0?9?9?9*9*9?9?9?9?9?9?9*9?9*9*9?9*9,30.68,23.49,64.2,0,0,0,0,0,0.5,0,0,9999,9999,9,999999999,0,0.0,0,0,0.0,0.0
1997,1,1,15,22,?9?9?9?9E0?9?9?9*9*9?9?9?9?9?9?9*9?9*9*9?9*9,30.68,23.49,64.2,0,0,0,0,0,0.5,0,0,9999,9999,9,999999999,0,0.0,0,0,0.0,0.0
1997,1,1,15,23,?9?9?9?9E0?9?9?9*9*9?9?9?9?9?9?9*9?9*9*9?9*9,30.68,23.49,64.2,0,0,0,0,0,0.5,0,0,9999,9999,9,999999999,0,0.0,0,0,0.0,0.0
1997,1,1,15,24,?9?9?9?9E0?9?9?9*9*9?9?9?9?9?9?9*9?9*9*9?9*9,30.68,23.49,64.2,0,0,0,0,0,0.5,0,0,9999,9999,9,999999999,0,0.0,0,0,0.0,0.0
1997,1,1,15,25,?9?9?9?9E0?9?9?9*9*9?9?9?9?9?9?9*9?9*9*9?9*9,30.68,23.49,64.2,0,0,0,0,0,0.5,0,0,9999,9999,9,999999999,0,0.0,0,0,0.0,0.0
1997,1,1,15,26,?9?9?9?9E0?9?9?9*9*9?9?9?9?9?9?9*9?9*9*9?9*9,30.68,23.49,64.2,0,0,0,0,0,0.5,0,0,9999,9999,9,999999999,0,0.0,0,0,0.0,0.0
1997,1,1,15,27,?9?9?9?9E0?9?9?9*9*9?9?9?9?9?9?9*9?9*9*9?9*9,30.68,23.49,64.2,0,0,0,0,0,0.5,0,0,9999,9999,9,999999999,0,0.0,0,0,0.0,0.0
1997,1,1,15,28,?9?9?9?9E0?9?9?9*9*9?9?9?9?9?9?9*9?9*9*9?9*9,30.68,23.49,64.2,0,0,0,0,0,0.5,0,0,9999,9999,9,999999999,0,0.0,0,0,0.0,0.0
1997,1,1,15,29,?9?9?9?9E0?9?9?9*9*9?9?9?9?9?9?9*9?9*9*9?9*9,30.68,23.49,64.2,0,0,0,0,0,0.5,0,0,9999,9999,9,999999999,0,0.0,0,0,0.0,0.0
1997,1,1,15,30,?9?9?9?9E0?9?9?9*9*9?9?9?9?9?9?9*9?9*9*9?9*9,30.68,23.49,64.2,0,0,0,0,0,0.5,0,0,9999,9999,9,999999999,0,0.0,0,0,0.0,0.0
1997,1,1,15,31,?9?9?9?9E0?9?9?9*9*9?9?9?9?9?9?9*9?9*9*9?9*9,30.68,23.49,64.2,0,0,0,0,0,0.5,0,0,9999,9999,9,999999999,0,0.0,0,0,0.0,0.0
1997,1,1,15,32,?9?9?9?9E0?9?9?9*9*9?9?9?9?9?9?9*9?9*9*9?9*9,30.68,23.49,64.2,0,0,0,0,0,0.5,0,0,9999,9999,9,999999999,0,0.0,0,0,0.0,0.0
1997,1,1,15,33,?9?9?9?9E0?9?9?9*9*9?9?9?9?9?9?9*9?9*9*9?9*9,30.68,23.49,64.2,0,0,0,0,0,0.5,0,0,9999,9999,9,999999999,0,0.0,0,0,0.0,0.0
1997,1,1,15,34,?9?9?9?9E0?9?9?9*9*9?9?9?9?9?9?9*9?9*9*9?9*9,30.68,23.49,64.2,0,0,0,0,0,0.5,0,0,9999,9999,9,999999999,0,0.0,0,0,0.0,0.0
1997,1,1,15,35,?9?9?9?9E0?9?9?9*9*9?9?9?9?9?9?9*9?9*9*9?9*9,30.68,23.49,64.2,0,0,0,0,0,0.5,0,0,9999,9999,9,999999999,0,0.0,0,0,0.0,0.0
1997,1,1,15,36,?9?9?9?9E0?9?9?9*9*9?9?9?9?9?9?9*9?9*9*9?9*9,30.68,23.49,64.2,0,0,0,0,0,0.5,0,0,9999,9999,9,999999999,0,0.0,0,0,0.0,0.0
1997,1,1,15,37,?9?9?9?9E0?9?9?9*9*9?9?9?9?9?9?9*9?9*9*9?9*9,30.68,23.49,64.2,0,0,0,0,0,0.5,0,0,9999,9999,9,999999999,0,0.0,0,0,0.0,0.0
1997,1,1,15,38,?9?9?9?9E0?9?9?9*9*9?9?9?9?9?9?9*9?9*9*9?9*9,30.68,23.49,64.2,0,0,0,0,0,0.5,0,0,9999,9999,9,999999999,0,0.0,0,0,0.0,0.0
1997,1,1,15,39,?9?9?9?9E0?9?9?9*9*9?9?9?9?9?9?9*9?9*9*9?9*9,30.68,23.49,64.2,0,0,0,0,0,0.5,0,0,9999,9999,9,999999999,0,0.0,0,0,0.0,0.0
1997,1,1,15,40,?9?9?9?9E0?9?9?9*9*9?9?9?9?9?9?9*9?9*9*9?9*9,30.68,23.49,64.2,0,0,0,0,0,0.5,0,0,9999,9999,9,999999999,0,0.0,0,0,0.0,0.0
1997,1,1,15,41,?9?9?9?9E0?9?9?9*9*9?9?9?9?9?9?9*9?9*9*9?9*9,30.68,23.49,64.2,0,0,0,0,0,0.5,0,0,9999,9999,9,999999999,0,0.0,0,0,0.0,0.0
1997,1,1,15,42,?9?9?9?9E0?9?9?9*9*9?9?9?9?9?9?9*9?9*9*9?9*9,30.68,23.49,64.2,0,0,0,0,0,0.5,0,0,9999,9999,9,999999999,0,0.0,0,0,0.0,0.0
1997,1,1,15,43,?9?9?9?9E0?9?9?9*9*9?9?9?9?9?9?9*9?9*9*9?9*9,30.68,23.49,64.2,0,0,0,0,0,0.5,0,0,9999,9999,9,999999999,0,0.0,0,0,0.0,0.0
1997,1,1,15,44,?9?9?9?9E0?9?9?9*9*9?9?9?9?9?9?9*9?9*9*9?9*9,30.68,23.49,64.2,0,0,0,0,0,0.5,0,0,9999,9999,9,999999999,0,0.0,0,0,0.0,0.0
1997,1,1,15,45,?9?9?9?9E0?9?9?9*9*9?9?9?9?9?9?9*9?9*9*9?9*9,30.68,23.49,64.2,0,0,0,0,0,0.5,0,0,9999,9999,9,999999999,0,0.0,0,0,0.0,0.0
1997,1,1,15,46,?9?9?9?9E0?9?9?9*9*9?9?9?9?9?9?9*9?9*9*9?9*9,30.68,23.49,64.2,0,0,0,0,0,0.5,0,0,9999,9999,9,999999999,0,0.0,0,0,0.0,0.0
1997,1,1,15,47,?9?9?9?9E0?9?9?9*9*9?9?9?9?9?9?9*9?9*9*9?9*9,30.68,23.49,64.2,0,0,0,0,0,0.5,0,0,9999,9999,9,999999999,0,0.0,0,0,0.0,0.0
1997,1,1,15,48,?9?9?9?9E0?9?9?9*9*9?9?9?9?9?9?9*9?9*9*9?9*9,30.68,23.49,64.2,0,0,0,0,0,0.5,0,0,9999,9999,9,999999999,0,0.0,0,0,0.0,0.0
1997,1,1,15,49,?9?9?9?9E0?9?9?9*9*9?9?9?9?9?9?9*9?9*9*9?9*9,30.68,23.49,64.2,0,0,0,0,0,0.5,0,0,9999,9999,9,999999999,0,0.0,0,0,0.0,0.0
1997,1,1,15,50,?9?9?9?9E0?9?9?9*9*9?9?9?9?9?9?9*9?9*9*9?9*9,30.68,23.49,64.2,0,0,0,0,0,0.5,0,0,9999,9999,9,999999999,0,0.0,0,0,0.0,0.0
1997,1,1,15,51,?9?9?9?9E0?9?9?9*9*9?9?9?9?9?9?9*9?9*9*9?9*9,30.68,23.49,64.2,0,0,0,0,0,0.5,0,0,9999,9999,9,999999999,0,0.0,0,0,0.0,0.0
1997,1,1,15,52,?9?9?9?9E0?9?9?9*9*9?9?9?9?9?9?9*9?9*9*9?9*9,30.68,23.49,64.2,0,0,0,0,0,0.5,0,0,9999,9999,9,999999999,0,0.0,0,0,0.0,0.0
1997,1,1,15,53,?9?9?9?9E0?9?9?9*9*9?9?9?9?9?9?9*9?9*9*9?9*9,30.68,23.49,64.2,0,0,0,0,0,0.5,0,0,9999,9999,9,999999999,0,0.0,0,0,0.0,0.0
1997,1,1,15,54,?9?9?9?9E0?9?9?9*9*9?9?9?9?9?9?9*9?9*9*9?9*9,30.68,23.49,64.2,0,0,0,0,0,0.5,0,0,9999,9999,9,999999999,0,0.0,0,0,0.0,0.0
1997,1,1,15,55,?9?9?9?9E0?9?9?9*9*9?9?9?9?9?9?9*9?9*9*9?9*9,30.68,23.49,64.2,0,0,0,0,0,0.5,0,0,9999,9999,9,999999999,0,0.0,0,0,0.0,0.0
1997,1,1,15,56,?9?9?9?9E0?9?9?9*9*9?9?9?9?9?9?9*9?9*9*9?9*9,30.68,23.49,64.2,0,0,0,0,0,0.5,0,0,9999,9999,9,999999999,0,0.0,0,0,0.0,0.0
1997,1,1,15,57,?9?9?9?9E0?9?9?9*9*9?9?9?9?9?9?9*9?9*9*9?9*9,30.68,23.49,64.2,0,0,0,0,0,0.5,0,0,9999,9999,9,999999999,0,0.0,0,0,0.0,0.0
1997,1,1,15,58,?9?9?9?9E0?9?9?9*9*9?9?9?9?9?9?9*9?9*9*9?9*9,30.68,23.49,64.2,0,0,0,0,0,0.5,0,0,9999,9999,9,999999999,0,0.0,0,0,0.0,0.0
1997,1,1,15,59,?9?9?9?9E0?9?9?9*9*9?9?9?9?9?9?9*9?9*9*9?9*9,30.68,23.49,64.2,0,0,0,0,0,0.5,0,0,9999,9999,9,999999999,0,0.0,0,0,0.0,0.0
1997,1,1,15,60,?9?9?9?9E0?9?9?9*9*9?9?9?9?9?9?9*9?9*9*9?9*9,30.68,23.49,64.2,0,0,0,0,0,0.5,0,0,9999,9999,9,999999999,0,0.0,0,0,0.0,0.0
1997,1,1,16,1,?9?9?9?9E0?9?9?9*9*9?9?9?9?9?9?9*9?9*9*9?9*9,30.68,23.49,64.2,0,0,0,0,0,0.5,0,0,9999,9999,9,999999999,0,0.0,0,0,0.0,0.0
1997,1,1,16,2,?9?9?9?9E0?9?9?9*9*9?9?9?9?9?9?9*9?9*9*9?9*9,30.68,23.49,64.2,0,0,0,0,0,0.5,0,0,9999,9999,9,999999999,0,0.0,0,0,0.0,0.0
1997,1,1,16,3,?9?9?9?9E0?9?9?9*9*9?9?9?9?9?9?9*9?9*9*9?9*9,30.68,23.49,64.2,0,0,0,0,0,0.5,0,0,9999,9999,9,999999999,0,0.0,0,0,0.0,0.0
1997,1,1,16,4,?9?9?9?9E0?9?9?9*9*9?9?9?9?9?9?9*9?9*9*9?9*9,30.68,23.49,64.2,0,0,0,0,0,0.5,0,0,9999,9999,9,999999999,0,0.0,0,0,0.0,0.0
1997,1,1,16,5,?9?9?9?9E0?9?9?9*9*9?9?9?9?9?9?9*9?9*9*9?9*9,30.68,23.49,64.2,0,0,0,0,0,0.5,0,0,9999,9999,9,999999999,0,0.0,0,0,0.0,0.0
1997,1,1,16,6,?9?9?9?9E0?9?9?9*9*9?9?9?9?9?9?9*9?9*9*9?9*9,30.68,23.49,64.2,0,0,0,0,0,0.5,0,0,9999,9999,9,999999999,0,0.0,0,0,0.0,0.0
1997,1,1,16,7,?9?9?9?9E0?9?9?9*9*9?9?9?9?9?9?9*9?9*9*9?9*9,30.68,23.49,64.2,0,0,0,0,0,0.5,0,0,9999,9999,9,999999999,0,0.0,0,0,0.0,0.0
1997,1,1,16,8,?9?9?9?9E0?9?9?9*9*9?9?9?9?9?9?9*9?9*9*9?9*9,30.68,23.49,64.2,0,0,0,0,0,0.5,0,0,9999,9999,9,999999999,0,0.0,0,0,0.0,0.0
1997,1,1,16,9,?9?9?9?9E0?9?9?9*9*9?9?9?9?9?9?9*9?9*9*9?9*9,30.68,23.49,64.2,0,0,0,0,0,0.5,0,0,9999,9999,9,999999999,0,0.0,0,0,0.0,0.0
1997,1,1,16,10,?9?9?9?9E0?9?9?9*9*9?9?9?9?9?9?9*9?9*9*9?9*9,30.68,23.49,64.2,0,0,0,0,0,0.5,0,0,9999,9999,9,999999999,0,0.0,0,0,0.0,0.0
1997,1,1,16,11,?9?9?9?9E0?9?9?9*9*9?9?9?9?9?9?9*9?9*9*9?9*9,30.68,23.49,64.2,0,0,0,0,0,0.5,0,0,9999,9999,9,999999999,0,0.0,0,0,0.0,0.0
1997,1,1,16,12,?9?9?9?9E0?9?9?9*9*9?9?9?9?9?9?9*9?9*9*9?9*9,30.68,23.49,64.2,0,0,0,0,0,0.5,0,0,9999,9999,9,999999999,0,0.0,0,0,0.0,0.0
1997,1,1,16,13,?9?9?9?9E0?9?9?9*9*9?9?9?9?9?9?9*9?9*9*9?9*9,30.68,23.49,64.2,0,0,0,0,0,0.5,0,0,9999,9999,9,999999999,0,0.0,0,0,0.0,0.0
1997,1,1,16,14,?9?9?9?9E0?9?9?9*9*9?9?9?9?9?9?9*9?9*9*9?9*9,30.68,23.49,64.2,0,0,0,0,0,0.5,0,0,9999,9999,9,999999999,0,0.0,0,0,0.0,0.0
1997,1,1,16,15,?9?9?9?9E0?9?9?9*9*9?9?9?9?9?9?9*9?9*9*9?9*9,30.68,23.49,64.2,0,0,0,0,0,0.5,0,0,9999,9999,9,999999999,0,0.0,0,0,0.0,0.0
1997,1,1,16,16,?9?9?9?9E0?9?9?9*9*9?9?9?9?9?9?9*9?9*9*9?9*9,30.68,23.49,64.2,0,0,0,0,0,0.5,0,0,9999,9999,9,999999999,0,0.0,0,0,0.0,0.0
1997,1,1,16,17,?9?9?9?9E0?9?9?9*9*9?9?9?9?9?9?9*9?9*9*9?9*9,30.68,23.49,64.2,0,0,0,0,0,0.5,0,0,9999,9999,9,999999999,0,0.0,0,0,0.0,0.0
1997,1,1,16,18,?9?9?9?9E0?9?9?9*9*9?9?9?9?9?9?9*9?9*9*9?9*9,30.68,23.49,64.2,0,0,0,0,0,0.5,0,0,9999,9999,9,999999999,0,0.0,0,0,0.0,0.0
1997,1,1,16,19,?9?9?9?9E0?9?9?9*9*9?9?9?9?9?9?9*9?9*9*9?9*9,30.68,23.49,64.2,0,0,0,0,0,0.5,0,0,9999,9999,9,999999999,0,0.0,0,0,0.0,0.0
1997,1,1,16,20,?9?9?9?9E0?9?9?9*9*9?9?9?9?9?9?9*9?9*9*9?9*9,30.68,23.49,64.2,0,0,0,0,0,0.5,0,0,9999,9999,9,999999999,0,0.0,0,0,0.0,0.0
1997,1,1,16,21,?9?9?9?9E0?9?9?9*9*9?9?9?9?9?9?9*9?9*9*9?9*9,30.68,23.49,64.2,0,0,0,0,0,0.5,0,0,9999,9999,9,999999999,0,0.0,0,0,0.0,0.0
1997,1,1,16,22,?9?9?9?9E0?9?9?9*9*9?9?9?9?9?9?9*9?9*9*9?9*9,30.68,23.49,64.2,0,0,0,0,0,0.5,0,0,9999,9999,9,999999999,0,0.0,0,0,0.0,0.0
1997,1,1,16,23,?9?9?9?9E0?9?9?9*9*9?9?9?9?9?9?9*9?9*9*9?9*9,30.68,23.49,64.2,0,0,0,0,0,0.5,0,0,9999,9999,9,999999999,0,0.0,0,0,0.0,0.0
1997,1,1,16,24,?9?9?9?9E0?9?9?9*9*9?9?9?9?9?9?9*9?9*9*9?9*9,30.68,23.49,64.2,0,0,0,0,0,0.5,0,0,9999,9999,9,999999999,0,0.0,0,0,0.0,0.0
1997,1,1,16,25,?9?9?9?9E0?9?9?9*9*9?9?9?9?9?9?9*9?9*9*9?9*9,30.68,23.49,64.2,0,0,0,0,0,0.5,0,0,9999,9999,9,999999999,0,0.0,0,0,0.0,0.0
1997,1,1,16,26,?9?9?9?9E0?9?9?9*9*9?9?9?9?9?9?9*9?9*9*9?9*9,30.68,23.49,64.2,0,0,0,0,0,0.5,0,0,9999,9999,9,999999999,0,0.0,0,0,0.0,0.0
1997,1,1,16,27,?9?9?9?9E0?9?9?9*9*9?9?9?9?9?9?9*9?9*9*9?9*9,30.68,23.49,64.2,0,0,0,0,0,0.5,0,0,9999,9999,9,999999999,0,0.0,0,0,0.0,0.0
1997,1,1,16,28,?9?9?9?9E0?9?9?9*9*9?9?9?9?9?9?9*9?9*9*9?9*9,30.68,23.49,64.2,0,0,0,0,0,0.5,0,0,9999,9999,9,999999999,0,0.0,0,0,0.0,0.0
1997,1,1,16,29,?9?9?9?9E0?9?9?9*9*9?9?9?9?9?9?9*9?9*9*9?9*9,30.68,23.49,64.2,0,0,0,0,0,0.5,0,0,9999,9999,9,999999999,0,0.0,0,0,0.0,0.0
1997,1,1,16,30,?9?9?9?9E0?9?9?9*9*9?9?9?9?9?9?9*9?9*9*9?9*9,30.68,23.49,64.2,0,0,0,0,0,0.5,0,0,9999,9999,9,999999999,0,0.0,0,0,0.0,0.0
1997,1,1,16,31,?9?9?9?9E0?9?9?9*9*9?9?9?9?9?9?9*9?9*9*9?9*9,30.68,23.49,64.2,0,0,0,0,0,0.5,0,0,9999,9999,9,999999999,0,0.0,0,0,0.0,0.0
1997,1,1,16,32,?9?9?9?9E0?9?9?9*9*9?9?9?9?9?9?9*9?9*9*9?9*9,30.68,23.49,64.2,0,0,0,0,0,0.5,0,0,9999,9999,9,999999999,0,0.0,0,0,0.0,0.0
1997,1,1,16,33,?9?9?9?9E0?9?9?9*9*9?9?9?9?9?9?9*9?9*9*9?9*9,30.68,23.49,64.2,0,0,0,0,0,0.5,0,0,9999,9999,9,999999999,0,0.0,0,0,0.0,0.0
1997,1,1,16,34,?9?9?9?9E0?9?9?9*9*9?9?9?9?9?9?9*9?9*9*9?9*9,30.68,23.49,64.2,0,0,0,0,0,0.5,0,0,9999,9999,9,999999999,0,0.0,0,0,0.0,0.0
1997,1,1,16,35,?9?9?9?9E0?9?9?9*9*9?9?9?9?9?9?9*9?9*9*9?9*9,30.68,23.49,64.2,0,0,0,0,0,0.5,0,0,9999,9999,9,999999999,0,0.0,0,0,0.0,0.0
1997,1,1,16,36,?9?9?9?9E0?9?9?9*9*9?9?9?9?9?9?9*9?9*9*9?9*9,30.68,23.49,64.2,0,0,0,0,0,0.5,0,0,9999,9999,9,999999999,0,0.0,0,0,0.0,0.0
1997,1,1,16,37,?9?9?9?9E0?9?9?9*9*9?9?9?9?9?9?9*9?9*9*9?9*9,30.68,23.49,64.2,0,0,0,0,0,0.5,0,0,9999,9999,9,999999999,0,0.0,0,0,0.0,0.0
1997,1,1,16,38,?9?9?9?9E0?9?9?9*9*9?9?9?9?9?9?9*9?9*9*9?9*9,30.68,23.49,64.2,0,0,0,0,0,0.5,0,0,9999,9999,9,999999999,0,0.0,0,0,0.0,0.0
1997,1,1,16,39,?9?9?9?9E0?9?9?9*9*9?9?9?9?9?9?9*9?9*9*9?9*9,30.68,23.49,64.2,0,0,0,0,0,0.5,0,0,9999,9999,9,999999999,0,0.0,0,0,0.0,0.0
1997,1,1,16,40,?9?9?9?9E0?9?9?9*9*9?9?9?9?9?9?9*9?9*9*9?9*9,30.68,23.49,64.2,0,0,0,0,0,0.5,0,0,9999,9999,9,999999999,0,0.0,0,0,0.0,0.0
1997,1,1,16,41,?9?9?9?9E0?9?9?9*9*9?9?9?9?9?9?9*9?9*9*9?9*9,30.68,23.49,64.2,0,0,0,0,0,0.5,0,0,9999,9999,9,999999999,0,0.0,0,0,0.0,0.0
1997,1,1,16,42,?9?9?9?9E0?9?9?9*9*9?9?9?9?9?9?9*9?9*9*9?9*9,30.68,23.49,64.2,0,0,0,0,0,0.5,0,0,9999,9999,9,999999999,0,0.0,0,0,0.0,0.0
1997,1,1,16,43,?9?9?9?9E0?9?9?9*9*9?9?9?9?9?9?9*9?9*9*9?9*9,30.68,23.49,64.2,0,0,0,0,0,0.5,0,0,9999,9999,9,999999999,0,0.0,0,0,0.0,0.0
1997,1,1,16,44,?9?9?9?9E0?9?9?9*9*9?9?9?9?9?9?9*9?9*9*9?9*9,30.68,23.49,64.2,0,0,0,0,0,0.5,0,0,9999,9999,9,999999999,0,0.0,0,0,0.0,0.0
1997,1,1,16,45,?9?9?9?9E0?9?9?9*9*9?9?9?9?9?9?9*9?9*9*9?9*9,30.68,23.49,64.2,0,0,0,0,0,0.5,0,0,9999,9999,9,999999999,0,0.0,0,0,0.0,0.0
1997,1,1,16,46,?9?9?9?9E0?9?9?9*9*9?9?9?9?9?9?9*9?9*9*9?9*9,30.68,23.49,64.2,0,0,0,0,0,0.5,0,0,9999,9999,9,999999999,0,0.0,0,0,0.0,0.0
1997,1,1,16,47,?9?9?9?9E0?9?9?9*9*9?9?9?9?9?9?9*9?9*9*9?9*9,30.68,23.49,64.2,0,0,0,0,0,0.5,0,0,9999,9999,9,999999999,0,0.0,0,0,0.0,0.0
1997,1,1,16,48,?9?9?9?9E0?9?9?9*9*9?9?9?9?9?9?9*9?9*9*9?9*9,30.68,23.49,64.2,0,0,0,0,0,0.5,0,0,9999,9999,9,999999999,0,0.0,0,0,0.0,0.0
1997,1,1,16,49,?9?9?9?9E0?9?9?9*9*9?9?9?9?9?9?9*9?9*9*9?9*9,30.68,23.49,64.2,0,0,0,0,0,0.5,0,0,9999,9999,9,999999999,0,0.0,0,0,0.0,0.0
1997,1,1,16,50,?9?9?9?9E0?9?9?9*9*9?9?9?9?9?9?9*9?9*9*9?9*9,30.68,23.49,64.2,0,0,0,0,0,0.5,0,0,9999,9999,9,999999999,0,0.0,0,0,0.0,0.0
1997,1,1,16,51,?9?9?9?9E0?9?9?9*9*9?9?9?9?9?9?9*9?9*9*9?9*9,30.68,23.49,64.2,0,0,0,0,0,0.5,0,0,9999,9999,9,999999999,0,0.0,0,0,0.0,0.0
1997,1,1,16,52,?9?9?9?9E0?9?9?9*9*9?9?9?9?9?9?9*9?9*9*9?9*9,30.68,23.49,64.2,0,0,0,0,0,0.5,0,0,9999,9999,9,999999999,0,0.0,0,0,0.0,0.0
1997,1,1,16,53,?9?9?9?9E0?9?9?9*9*9?9?9?9?9?9?9*9?9*9*9?9*9,30.68,23.49,64.2,0,0,0,0,0,0.5,0,0,9999,9999,9,999999999,0,0.0,0,0,0.0,0.0
1997,1,1,16,54,?9?9?9?9E0?9?9?9*9*9?9?9?9?9?9?9*9?9*9*9?9*9,30.68,23.49,64.2,0,0,0,0,0,0.5,0,0,9999,9999,9,999999999,0,0.0,0,0,0.0,0.0
1997,1,1,16,55,?9?9?9?9E0?9?9?9*9*9?9?9?9?9?9?9*9?9*9*9?9*9,30.68,23.49,64.2,0,0,0,0,0,0.5,0,0,9999,9999,9,999999999,0,0.0,0,0,0.0,0.0
1997,1,1,16,56,?9?9?9?9E0?9?9?9*9*9?9?9?9?9?9?9*9?9*9*9?9*9,30.68,23.49,64.2,0,0,0,0,0,0.5,0,0,9999,9999,9,999999999,0,0.0,0,0,0.0,0.0
1997,1,1,16,57,?9?9?9?9E0?9?9?9*9*9?9?9?9?9?9?9*9?9*9*9?9*9,30.68,23.49,64.2,0,0,0,0,0,0.5,0,0,9999,9999,9,999999999,0,0.0,0,0,0.0,0.0
1997,1,1,16,58,?9?9?9?9E0?9?9?9*9*9?9?9?9?9?9?9*9?9*9*9?9*9,30.68,23.49,64.2,0,0,0,0,0,0.5,0,0,9999,9999,9,999999999,0,0.0,0,0,0.0,0.0
1997,1,1,16,59,?9?9?9?9E0?9?9?9*9*9?9?9?9?9?9?9*9?9*9*9?9*9,30.68,23.49,64.2,0,0,0,0,0,0.5,0,0,9999,9999,9,999999999,0,0.0,0,0,0.0,0.0
1997,1,1,16,60,?9?9?9?9E0?9?9?9*9*9?9?9?9?9?9?9*9?9*9*9?9*9,30.68,23.49,64.2,0,0,0,0,0,0.5,0,0,9999,9999,9,999999999,0,0.0,0,0,0.0,0.0
1997,1,1,17,1,?9?9?9?9E0?9?9?9*9*9?9?9?9?9?9?9*9?9*9*9?9*9,30.68,23.49,64.2,0,0,0,0,0,0.5,0,0,9999,9999,9,999999999,0,0.0,0,0,0.0,0.0
1997,1,1,17,2,?9?9?9?9E0?9?9?9*9*9?9?9?9?9?9?9*9?9*9*9?9*9,30.68,23.49,64.2,0,0,0,0,0,0.5,0,0,9999,9999,9,999999999,0,0.0,0,0,0.0,0.0
1997,1,1,17,3,?9?9?9?9E0?9?9?9*9*9?9?9?9?9?9?9*9?9*9*9?9*9,30.68,23.49,64.2,0,0,0,0,0,0.5,0,0,9999,9999,9,999999999,0,0.0,0,0,0.0,0.0
1997,1,1,17,4,?9?9?9?9E0?9?9?9*9*9?9?9?9?9?9?9*9?9*9*9?9*9,30.68,23.49,64.2,0,0,0,0,0,0.5,0,0,9999,9999,9,999999999,0,0.0,0,0,0.0,0.0
1997,1,1,17,5,?9?9?9?9E0?9?9?9*9*9?9?9?9?9?9?9*9?9*9*9?9*9,30.68,23.49,64.2,0,0,0,0,0,0.5,0,0,9999,9999,9,999999999,0,0.0,0,0,0.0,0.0
1997,1,1,17,6,?9?9?9?9E0?9?9?9*9*9?9?9?9?9?9?9*9?9*9*9?9*9,30.68,23.49,64.2,0,0,0,0,0,0.5,0,0,9999,9999,9,999999999,0,0.0,0,0,0.0,0.0
1997,1,1,17,7,?9?9?9?9E0?9?9?9*9*9?9?9?9?9?9?9*9?9*9*9?9*9,30.68,23.49,64.2,0,0,0,0,0,0.5,0,0,9999,9999,9,999999999,0,0.0,0,0,0.0,0.0
1997,1,1,17,8,?9?9?9?9E0?9?9?9*9*9?9?9?9?9?9?9*9?9*9*9?9*9,30.68,23.49,64.2,0,0,0,0,0,0.5,0,0,9999,9999,9,999999999,0,0.0,0,0,0.0,0.0
1997,1,1,17,9,?9?9?9?9E0?9?9?9*9*9?9?9?9?9?9?9*9?9*9*9?9*9,30.68,23.49,64.2,0,0,0,0,0,0.5,0,0,9999,9999,9,999999999,0,0.0,0,0,0.0,0.0
1997,1,1,17,10,?9?9?9?9E0?9?9?9*9*9?9?9?9?9?9?9*9?9*9*9?9*9,30.68,23.49,64.2,0,0,0,0,0,0.5,0,0,9999,9999,9,999999999,0,0.0,0,0,0.0,0.0
1997,1,1,17,11,?9?9?9?9E0?9?9?9*9*9?9?9?9?9?9?9*9?9*9*9?9*9,30.68,23.49,64.2,0,0,0,0,0,0.5,0,0,9999,9999,9,999999999,0,0.0,0,0,0.0,0.0
1997,1,1,17,12,?9?9?9?9E0?9?9?9*9*9?9?9?9?9?9?9*9?9*9*9?9*9,30.68,23.49,64.2,0,0,0,0,0,0.5,0,0,9999,9999,9,999999999,0,0.0,0,0,0.0,0.0
1997,1,1,17,13,?9?9?9?9E0?9?9?9*9*9?9?9?9?9?9?9*9?9*9*9?9*9,30.68,23.49,64.2,0,0,0,0,0,0.5,0,0,9999,9999,9,999999999,0,0.0,0,0,0.0,0.0
1997,1,1,17,14,?9?9?9?9E0?9?9?9*9*9?9?9?9?9?9?9*9?9*9*9?9*9,30.68,23.49,64.2,0,0,0,0,0,0.5,0,0,9999,9999,9,999999999,0,0.0,0,0,0.0,0.0
1997,1,1,17,15,?9?9?9?9E0?9?9?9*9*9?9?9?9?9?9?9*9?9*9*9?9*9,30.68,23.49,64.2,0,0,0,0,0,0.5,0,0,9999,9999,9,999999999,0,0.0,0,0,0.0,0.0
1997,1,1,17,16,?9?9?9?9E0?9?9?9*9*9?9?9?9?9?9?9*9?9*9*9?9*9,30.68,23.49,64.2,0,0,0,0,0,0.5,0,0,9999,9999,9,999999999,0,0.0,0,0,0.0,0.0
1997,1,1,17,17,?9?9?9?9E0?9?9?9*9*9?9?9?9?9?9?9*9?9*9*9?9*9,30.68,23.49,64.2,0,0,0,0,0,0.5,0,0,9999,9999,9,999999999,0,0.0,0,0,0.0,0.0
1997,1,1,17,18,?9?9?9?9E0?9?9?9*9*9?9?9?9?9?9?9*9?9*9*9?9*9,30.68,23.49,64.2,0,0,0,0,0,0.5,0,0,9999,9999,9,999999999,0,0.0,0,0,0.0,0.0
1997,1,1,17,19,?9?9?9?9E0?9?9?9*9*9?9?9?9?9?9?9*9?9*9*9?9*9,30.68,23.49,64.2,0,0,0,0,0,0.5,0,0,9999,9999,9,999999999,0,0.0,0,0,0.0,0.0
1997,1,1,17,20,?9?9?9?9E0?9?9?9*9*9?9?9?9?9?9?9*9?9*9*9?9*9,30.68,23.49,64.2,0,0,0,0,0,0.5,0,0,9999,9999,9,999999999,0,0.0,0,0,0.0,0.0
1997,1,1,17,21,?9?9?9?9E0?9?9?9*9*9?9?9?9?9?9?9*9?9*9*9?9*9,30.68,23.49,64.2,0,0,0,0,0,0.5,0,0,9999,9999,9,999999999,0,0.0,0,0,0.0,0.0
1997,1,1,17,22,?9?9?9?9E0?9?9?9*9*9?9?9?9?9?9?9*9?9*9*9?9*9,30.68,23.49,64.2,0,0,0,0,0,0.5,0,0,9999,9999,9,999999999,0,0.0,0,0,0.0,0.0
1997,1,1,17,23,?9?9?9?9E0?9?9?9*9*9?9?9?9?9?9?9*9?9*9*9?9*9,30.68,23.49,64.2,0,0,0,0,0,0.5,0,0,9999,9999,9,999999999,0,0.0,0,0,0.0,0.0
1997,1,1,17,24,?9?9?9?9E0?9?9?9*9*9?9?9?9?9?9?9*9?9*9*9?9*9,30.68,23.49,64.2,0,0,0,0,0,0.5,0,0,9999,9999,9,999999999,0,0.0,0,0,0.0,0.0
1997,1,1,17,25,?9?9?9?9E0?9?9?9*9*9?9?9?9?9?9?9*9?9*9*9?9*9,30.68,23.49,64.2,0,0,0,0,0,0.5,0,0,9999,9999,9,999999999,0,0.0,0,0,0.0,0.0
1997,1,1,17,26,?9?9?9?9E0?9?9?9*9*9?9?9?9?9?9?9*9?9*9*9?9*9,30.68,23.49,64.2,0,0,0,0,0,0.5,0,0,9999,9999,9,999999999,0,0.0,0,0,0.0,0.0
1997,1,1,17,27,?9?9?9?9E0?9?9?9*9*9?9?9?9?9?9?9*9?9*9*9?9*9,30.68,23.49,64.2,0,0,0,0,0,0.5,0,0,9999,9999,9,999999999,0,0.0,0,0,0.0,0.0
1997,1,1,17,28,?9?9?9?9E0?9?9?9*9*9?9?9?9?9?9?9*9?9*9*9?9*9,30.68,23.49,64.2,0,0,0,0,0,0.5,0,0,9999,9999,9,999999999,0,0.0,0,0,0.0,0.0
1997,1,1,17,29,?9?9?9?9E0?9?9?9*9*9?9?9?9?9?9?9*9?9*9*9?9*9,30.68,23.49,64.2,0,0,0,0,0,0.5,0,0,9999,9999,9,999999999,0,0.0,0,0,0.0,0.0
1997,1,1,17,30,?9?9?9?9E0?9?9?9*9*9?9?9?9?9?9?9*9?9*9*9?9*9,30.68,23.49,64.2,0,0,0,0,0,0.5,0,0,9999,9999,9,999999999,0,0.0,0,0,0.0,0.0
1997,1,1,17,31,?9?9?9?9E0?9?9?9*9*9?9?9?9?9?9?9*9?9*9*9?9*9,30.68,23.49,64.2,0,0,0,0,0,0.5,0,0,9999,9999,9,999999999,0,0.0,0,0,0.0,0.0
1997,1,1,17,32,?9?9?9?9E0?9?9?9*9*9?9?9?9?9?9?9*9?9*9*9?9*9,30.68,23.49,64.2,0,0,0,0,0,0.5,0,0,9999,9999,9,999999999,0,0.0,0,0,0.0,0.0
1997,1,1,17,33,?9?9?9?9E0?9?9?9*9*9?9?9?9?9?9?9*9?9*9*9?9*9,30.68,23.49,64.2,0,0,0,0,0,0.5,0,0,9999,9999,9,999999999,0,0.0,0,0,0.0,0.0
1997,1,1,17,34,?9?9?9?9E0?9?9?9*9*9?9?9?9?9?9?9*9?9*9*9?9*9,30.68,23.49,64.2,0,0,0,0,0,0.5,0,0,9999,9999,9,999999999,0,0.0,0,0,0.0,0.0
1997,1,1,17,35,?9?9?9?9E0?9?9?9*9*9?9?9?9?9?9?9*9?9*9*9?9*9,30.68,23.49,64.2,0,0,0,0,0,0.5,0,0,9999,9999,9,999999999,0,0.0,0,0,0.0,0.0
1997,1,1,17,36,?9?9?9?9E0?9?9?9*9*9?9?9?9?9?9?9*9?9*9*9?9*9,30.68,23.49,64.2,0,0,0,0,0,0.5,0,0,9999,9999,9,999999999,0,0.0,0,0,0.0,0.0
1997,1,1,17,37,?9?9?9?9E0?9?9?9*9*9?9?9?9?9?9?9*9?9*9*9?9*9,30.68,23.49,64.2,0,0,0,0,0,0.5,0,0,9999,9999,9,999999999,0,0.0,0,0,0.0,0.0
1997,1,1,17,38,?9?9?9?9E0?9?9?9*9*9?9?9?9?9?9?9*9?9*9*9?9*9,30.68,23.49,64.2,0,0,0,0,0,0.5,0,0,9999,9999,9,999999999,0,0.0,0,0,0.0,0.0
1997,1,1,17,39,?9?9?9?9E0?9?9?9*9*9?9?9?9?9?9?9*9?9*9*9?9*9,30.68,23.49,64.2,0,0,0,0,0,0.5,0,0,9999,9999,9,999999999,0,0.0,0,0,0.0,0.0
1997,1,1,17,40,?9?9?9?9E0?9?9?9*9*9?9?9?9?9?9?9*9?9*9*9?9*9,30.68,23.49,64.2,0,0,0,0,0,0.5,0,0,9999,9999,9,999999999,0,0.0,0,0,0.0,0.0
1997,1,1,17,41,?9?9?9?9E0?9?9?9*9*9?9?9?9?9?9?9*9?9*9*9?9*9,30.68,23.49,64.2,0,0,0,0,0,0.5,0,0,9999,9999,9,999999999,0,0.0,0,0,0.0,0.0
1997,1,1,17,42,?9?9?9?9E0?9?9?9*9*9?9?9?9?9?9?9*9?9*9*9?9*9,30.68,23.49,64.2,0,0,0,0,0,0.5,0,0,9999,9999,9,999999999,0,0.0,0,0,0.0,0.0
1997,1,1,17,43,?9?9?9?9E0?9?9?9*9*9?9?9?9?9?9?9*9?9*9*9?9*9,30.68,23.49,64.2,0,0,0,0,0,0.5,0,0,9999,9999,9,999999999,0,0.0,0,0,0.0,0.0
1997,1,1,17,44,?9?9?9?9E0?9?9?9*9*9?9?9?9?9?9?9*9?9*9*9?9*9,30.68,23.49,64.2,0,0,0,0,0,0.5,0,0,9999,9999,9,999999999,0,0.0,0,0,0.0,0.0
1997,1,1,17,45,?9?9?9?9E0?9?9?9*9*9?9?9?9?9?9?9*9?9*9*9?9*9,30.68,23.49,64.2,0,0,0,0,0,0.5,0,0,9999,9999,9,999999999,0,0.0,0,0,0.0,0.0
1997,1,1,17,46,?9?9?9?9E0?9?9?9*9*9?9?9?9?9?9?9*9?9*9*9?9*9,30.68,23.49,64.2,0,0,0,0,0,0.5,0,0,9999,9999,9,999999999,0,0.0,0,0,0.0,0.0
1997,1,1,17,47,?9?9?9?9E0?9?9?9*9*9?9?9?9?9?9?9*9?9*9*9?9*9,30.68,23.49,64.2,0,0,0,0,0,0.5,0,0,9999,9999,9,999999999,0,0.0,0,0,0.0,0.0
1997,1,1,17,48,?9?9?9?9E0?9?9?9*9*9?9?9?9?9?9?9*9?9*9*9?9*9,30.68,23.49,64.2,0,0,0,0,0,0.5,0,0,9999,9999,9,999999999,0,0.0,0,0,0.0,0.0
1997,1,1,17,49,?9?9?9?9E0?9?9?9*9*9?9?9?9?9?9?9*9?9*9*9?9*9,30.68,23.49,64.2,0,0,0,0,0,0.5,0,0,9999,9999,9,999999999,0,0.0,0,0,0.0,0.0
1997,1,1,17,50,?9?9?9?9E0?9?9?9*9*9?9?9?9?9?9?9*9?9*9*9?9*9,30.68,23.49,64.2,0,0,0,0,0,0.5,0,0,9999,9999,9,999999999,0,0.0,0,0,0.0,0.0
1997,1,1,17,51,?9?9?9?9E0?9?9?9*9*9?9?9?9?9?9?9*9?9*9*9?9*9,30.68,23.49,64.2,0,0,0,0,0,0.5,0,0,9999,9999,9,999999999,0,0.0,0,0,0.0,0.0
1997,1,1,17,52,?9?9?9?9E0?9?9?9*9*9?9?9?9?9?9?9*9?9*9*9?9*9,30.68,23.49,64.2,0,0,0,0,0,0.5,0,0,9999,9999,9,999999999,0,0.0,0,0,0.0,0.0
1997,1,1,17,53,?9?9?9?9E0?9?9?9*9*9?9?9?9?9?9?9*9?9*9*9?9*9,30.68,23.49,64.2,0,0,0,0,0,0.5,0,0,9999,9999,9,999999999,0,0.0,0,0,0.0,0.0
1997,1,1,17,54,?9?9?9?9E0?9?9?9*9*9?9?9?9?9?9?9*9?9*9*9?9*9,30.68,23.49,64.2,0,0,0,0,0,0.5,0,0,9999,9999,9,999999999,0,0.0,0,0,0.0,0.0
1997,1,1,17,55,?9?9?9?9E0?9?9?9*9*9?9?9?9?9?9?9*9?9*9*9?9*9,30.68,23.49,64.2,0,0,0,0,0,0.5,0,0,9999,9999,9,999999999,0,0.0,0,0,0.0,0.0
1997,1,1,17,56,?9?9?9?9E0?9?9?9*9*9?9?9?9?9?9?9*9?9*9*9?9*9,30.68,23.49,64.2,0,0,0,0,0,0.5,0,0,9999,9999,9,999999999,0,0.0,0,0,0.0,0.0
1997,1,1,17,57,?9?9?9?9E0?9?9?9*9*9?9?9?9?9?9?9*9?9*9*9?9*9,30.68,23.49,64.2,0,0,0,0,0,0.5,0,0,9999,9999,9,999999999,0,0.0,0,0,0.0,0.0
1997,1,1,17,58,?9?9?9?9E0?9?9?9*9*9?9?9?9?9?9?9*9?9*9*9?9*9,30.68,23.49,64.2,0,0,0,0,0,0.5,0,0,9999,9999,9,999999999,0,0.0,0,0,0.0,0.0
1997,1,1,17,59,?9?9?9?9E0?9?9?9*9*9?9?9?9?9?9?9*9?9*9*9?9*9,30.68,23.49,64.2,0,0,0,0,0,0.5,0,0,9999,9999,9,999999999,0,0.0,0,0,0.0,0.0
1997,1,1,17,60,?9?9?9?9E0?9?9?9*9*9?9?9?9?9?9?9*9?9*9*9?9*9,30.68,23.49,64.2,0,0,0,0,0,0.5,0,0,9999,9999,9,999999999,0,0.0,0,0,0.0,0.0
1997,1,1,18,1,?9?9?9?9E0?9?9?9*9*9?9?9?9?9?9?9*9?9*9*9?9*9,30.68,23.49,64.2,0,0,0,0,0,0.5,0,0,9999,9999,9,999999999,0,0.0,0,0,0.0,0.0
1997,1,1,18,2,?9?9?9?9E0?9?9?9*9*9?9?9?9?9?9?9*9?9*9*9?9*9,30.68,23.49,64.2,0,0,0,0,0,0.5,0,0,9999,9999,9,999999999,0,0.0,0,0,0.0,0.0
1997,1,1,18,3,?9?9?9?9E0?9?9?9*9*9?9?9?9?9?9?9*9?9*9*9?9*9,30.68,23.49,64.2,0,0,0,0,0,0.5,0,0,9999,9999,9,999999999,0,0.0,0,0,0.0,0.0
1997,1,1,18,4,?9?9?9?9E0?9?9?9*9*9?9?9?9?9?9?9*9?9*9*9?9*9,30.68,23.49,64.2,0,0,0,0,0,0.5,0,0,9999,9999,9,999999999,0,0.0,0,0,0.0,0.0
1997,1,1,18,5,?9?9?9?9E0?9?9?9*9*9?9?9?9?9?9?9*9?9*9*9?9*9,30.68,23.49,64.2,0,0,0,0,0,0.5,0,0,9999,9999,9,999999999,0,0.0,0,0,0.0,0.0
1997,1,1,18,6,?9?9?9?9E0?9?9?9*9*9?9?9?9?9?9?9*9?9*9*9?9*9,30.68,23.49,64.2,0,0,0,0,0,0.5,0,0,9999,9999,9,999999999,0,0.0,0,0,0.0,0.0
1997,1,1,18,7,?9?9?9?9E0?9?9?9*9*9?9?9?9?9?9?9*9?9*9*9?9*9,30.68,23.49,64.2,0,0,0,0,0,0.5,0,0,9999,9999,9,999999999,0,0.0,0,0,0.0,0.0
1997,1,1,18,8,?9?9?9?9E0?9?9?9*9*9?9?9?9?9?9?9*9?9*9*9?9*9,30.68,23.49,64.2,0,0,0,0,0,0.5,0,0,9999,9999,9,999999999,0,0.0,0,0,0.0,0.0
1997,1,1,18,9,?9?9?9?9E0?9?9?9*9*9?9?9?9?9?9?9*9?9*9*9?9*9,30.68,23.49,64.2,0,0,0,0,0,0.5,0,0,9999,9999,9,999999999,0,0.0,0,0,0.0,0.0
1997,1,1,18,10,?9?9?9?9E0?9?9?9*9*9?9?9?9?9?9?9*9?9*9*9?9*9,30.68,23.49,64.2,0,0,0,0,0,0.5,0,0,9999,9999,9,999999999,0,0.0,0,0,0.0,0.0
1997,1,1,18,11,?9?9?9?9E0?9?9?9*9*9?9?9?9?9?9?9*9?9*9*9?9*9,30.68,23.49,64.2,0,0,0,0,0,0.5,0,0,9999,9999,9,999999999,0,0.0,0,0,0.0,0.0
1997,1,1,18,12,?9?9?9?9E0?9?9?9*9*9?9?9?9?9?9?9*9?9*9*9?9*9,30.68,23.49,64.2,0,0,0,0,0,0.5,0,0,9999,9999,9,999999999,0,0.0,0,0,0.0,0.0
1997,1,1,18,13,?9?9?9?9E0?9?9?9*9*9?9?9?9?9?9?9*9?9*9*9?9*9,30.68,23.49,64.2,0,0,0,0,0,0.5,0,0,9999,9999,9,999999999,0,0.0,0,0,0.0,0.0
1997,1,1,18,14,?9?9?9?9E0?9?9?9*9*9?9?9?9?9?9?9*9?9*9*9?9*9,30.68,23.49,64.2,0,0,0,0,0,0.5,0,0,9999,9999,9,999999999,0,0.0,0,0,0.0,0.0
1997,1,1,18,15,?9?9?9?9E0?9?9?9*9*9?9?9?9?9?9?9*9?9*9*9?9*9,30.68,23.49,64.2,0,0,0,0,0,0.5,0,0,9999,9999,9,999999999,0,0.0,0,0,0.0,0.0
1997,1,1,18,16,?9?9?9?9E0?9?9?9*9*9?9?9?9?9?9?9*9?9*9*9?9*9,30.68,23.49,64.2,0,0,0,0,0,0.5,0,0,9999,9999,9,999999999,0,0.0,0,0,0.0,0.0
1997,1,1,18,17,?9?9?9?9E0?9?9?9*9*9?9?9?9?9?9?9*9?9*9*9?9*9,30.68,23.49,64.2,0,0,0,0,0,0.5,0,0,9999,9999,9,999999999,0,0.0,0,0,0.0,0.0
1997,1,1,18,18,?9?9?9?9E0?9?9?9*9*9?9?9?9?9?9?9*9?9*9*9?9*9,30.68,23.49,64.2,0,0,0,0,0,0.5,0,0,9999,9999,9,999999999,0,0.0,0,0,0.0,0.0
1997,1,1,18,19,?9?9?9?9E0?9?9?9*9*9?9?9?9?9?9?9*9?9*9*9?9*9,30.68,23.49,64.2,0,0,0,0,0,0.5,0,0,9999,9999,9,999999999,0,0.0,0,0,0.0,0.0
1997,1,1,18,20,?9?9?9?9E0?9?9?9*9*9?9?9?9?9?9?9*9?9*9*9?9*9,30.68,23.49,64.2,0,0,0,0,0,0.5,0,0,9999,9999,9,999999999,0,0.0,0,0,0.0,0.0
1997,1,1,18,21,?9?9?9?9E0?9?9?9*9*9?9?9?9?9?9?9*9?9*9*9?9*9,30.68,23.49,64.2,0,0,0,0,0,0.5,0,0,9999,9999,9,999999999,0,0.0,0,0,0.0,0.0
1997,1,1,18,22,?9?9?9?9E0?9?9?9*9*9?9?9?9?9?9?9*9?9*9*9?9*9,30.68,23.49,64.2,0,0,0,0,0,0.5,0,0,9999,9999,9,999999999,0,0.0,0,0,0.0,0.0
1997,1,1,18,23,?9?9?9?9E0?9?9?9*9*9?9?9?9?9?9?9*9?9*9*9?9*9,30.68,23.49,64.2,0,0,0,0,0,0.5,0,0,9999,9999,9,999999999,0,0.0,0,0,0.0,0.0
1997,1,1,18,24,?9?9?9?9E0?9?9?9*9*9?9?9?9?9?9?9*9?9*9*9?9*9,30.68,23.49,64.2,0,0,0,0,0,0.5,0,0,9999,9999,9,999999999,0,0.0,0,0,0.0,0.0
1997,1,1,18,25,?9?9?9?9E0?9?9?9*9*9?9?9?9?9?9?9*9?9*9*9?9*9,30.68,23.49,64.2,0,0,0,0,0,0.5,0,0,9999,9999,9,999999999,0,0.0,0,0,0.0,0.0
1997,1,1,18,26,?9?9?9?9E0?9?9?9*9*9?9?9?9?9?9?9*9?9*9*9?9*9,30.68,23.49,64.2,0,0,0,0,0,0.5,0,0,9999,9999,9,999999999,0,0.0,0,0,0.0,0.0
1997,1,1,18,27,?9?9?9?9E0?9?9?9*9*9?9?9?9?9?9?9*9?9*9*9?9*9,30.68,23.49,64.2,0,0,0,0,0,0.5,0,0,9999,9999,9,999999999,0,0.0,0,0,0.0,0.0
1997,1,1,18,28,?9?9?9?9E0?9?9?9*9*9?9?9?9?9?9?9*9?9*9*9?9*9,30.68,23.49,64.2,0,0,0,0,0,0.5,0,0,9999,9999,9,999999999,0,0.0,0,0,0.0,0.0
1997,1,1,18,29,?9?9?9?9E0?9?9?9*9*9?9?9?9?9?9?9*9?9*9*9?9*9,30.68,23.49,64.2,0,0,0,0,0,0.5,0,0,9999,9999,9,999999999,0,0.0,0,0,0.0,0.0
1997,1,1,18,30,?9?9?9?9E0?9?9?9*9*9?9?9?9?9?9?9*9?9*9*9?9*9,30.68,23.49,64.2,0,0,0,0,0,0.5,0,0,9999,9999,9,999999999,0,0.0,0,0,0.0,0.0
1997,1,1,18,31,?9?9?9?9E0?9?9?9*9*9?9?9?9?9?9?9*9?9*9*9?9*9,30.68,23.49,64.2,0,0,0,0,0,0.5,0,0,9999,9999,9,999999999,0,0.0,0,0,0.0,0.0
1997,1,1,18,32,?9?9?9?9E0?9?9?9*9*9?9?9?9?9?9?9*9?9*9*9?9*9,30.68,23.49,64.2,0,0,0,0,0,0.5,0,0,9999,9999,9,999999999,0,0.0,0,0,0.0,0.0
1997,1,1,18,33,?9?9?9?9E0?9?9?9*9*9?9?9?9?9?9?9*9?9*9*9?9*9,30.68,23.49,64.2,0,0,0,0,0,0.5,0,0,9999,9999,9,999999999,0,0.0,0,0,0.0,0.0
1997,1,1,18,34,?9?9?9?9E0?9?9?9*9*9?9?9?9?9?9?9*9?9*9*9?9*9,30.68,23.49,64.2,0,0,0,0,0,0.5,0,0,9999,9999,9,999999999,0,0.0,0,0,0.0,0.0
1997,1,1,18,35,?9?9?9?9E0?9?9?9*9*9?9?9?9?9?9?9*9?9*9*9?9*9,30.68,23.49,64.2,0,0,0,0,0,0.5,0,0,9999,9999,9,999999999,0,0.0,0,0,0.0,0.0
1997,1,1,18,36,?9?9?9?9E0?9?9?9*9*9?9?9?9?9?9?9*9?9*9*9?9*9,30.68,23.49,64.2,0,0,0,0,0,0.5,0,0,9999,9999,9,999999999,0,0.0,0,0,0.0,0.0
1997,1,1,18,37,?9?9?9?9E0?9?9?9*9*9?9?9?9?9?9?9*9?9*9*9?9*9,30.68,23.49,64.2,0,0,0,0,0,0.5,0,0,9999,9999,9,999999999,0,0.0,0,0,0.0,0.0
1997,1,1,18,38,?9?9?9?9E0?9?9?9*9*9?9?9?9?9?9?9*9?9*9*9?9*9,30.68,23.49,64.2,0,0,0,0,0,0.5,0,0,9999,9999,9,999999999,0,0.0,0,0,0.0,0.0
1997,1,1,18,39,?9?9?9?9E0?9?9?9*9*9?9?9?9?9?9?9*9?9*9*9?9*9,30.68,23.49,64.2,0,0,0,0,0,0.5,0,0,9999,9999,9,999999999,0,0.0,0,0,0.0,0.0
1997,1,1,18,40,?9?9?9?9E0?9?9?9*9*9?9?9?9?9?9?9*9?9*9*9?9*9,30.68,23.49,64.2,0,0,0,0,0,0.5,0,0,9999,9999,9,999999999,0,0.0,0,0,0.0,0.0
1997,1,1,18,41,?9?9?9?9E0?9?9?9*9*9?9?9?9?9?9?9*9?9*9*9?9*9,30.68,23.49,64.2,0,0,0,0,0,0.5,0,0,9999,9999,9,999999999,0,0.0,0,0,0.0,0.0
1997,1,1,18,42,?9?9?9?9E0?9?9?9*9*9?9?9?9?9?9?9*9?9*9*9?9*9,30.68,23.49,64.2,0,0,0,0,0,0.5,0,0,9999,9999,9,999999999,0,0.0,0,0,0.0,0.0
1997,1,1,18,43,?9?9?9?9E0?9?9?9*9*9?9?9?9?9?9?9*9?9*9*9?9*9,30.68,23.49,64.2,0,0,0,0,0,0.5,0,0,9999,9999,9,999999999,0,0.0,0,0,0.0,0.0
1997,1,1,18,44,?9?9?9?9E0?9?9?9*9*9?9?9?9?9?9?9*9?9*9*9?9*9,30.68,23.49,64.2,0,0,0,0,0,0.5,0,0,9999,9999,9,999999999,0,0.0,0,0,0.0,0.0
1997,1,1,18,45,?9?9?9?9E0?9?9?9*9*9?9?9?9?9?9?9*9?9*9*9?9*9,30.68,23.49,64.2,0,0,0,0,0,0.5,0,0,9999,9999,9,999999999,0,0.0,0,0,0.0,0.0
1997,1,1,18,46,?9?9?9?9E0?9?9?9*9*9?9?9?9?9?9?9*9?9*9*9?9*9,30.68,23.49,64.2,0,0,0,0,0,0.5,0,0,9999,9999,9,999999999,0,0.0,0,0,0.0,0.0
1997,1,1,18,47,?9?9?9?9E0?9?9?9*9*9?9?9?9?9?9?9*9?9*9*9?9*9,30.68,23.49,64.2,0,0,0,0,0,0.5,0,0,9999,9999,9,999999999,0,0.0,0,0,0.0,0.0
1997,1,1,18,48,?9?9?9?9E0?9?9?9*9*9?9?9?9?9?9?9*9?9*9*9?9*9,30.68,23.49,64.2,0,0,0,0,0,0.5,0,0,9999,9999,9,999999999,0,0.0,0,0,0.0,0.0
1997,1,1,18,49,?9?9?9?9E0?9?9?9*9*9?9?9?9?9?9?9*9?9*9*9?9*9,30.68,23.49,64.2,0,0,0,0,0,0.5,0,0,9999,9999,9,999999999,0,0.0,0,0,0.0,0.0
1997,1,1,18,50,?9?9?9?9E0?9?9?9*9*9?9?9?9?9?9?9*9?9*9*9?9*9,30.68,23.49,64.2,0,0,0,0,0,0.5,0,0,9999,9999,9,999999999,0,0.0,0,0,0.0,0.0
1997,1,1,18,51,?9?9?9?9E0?9?9?9*9*9?9?9?9?9?9?9*9?9*9*9?9*9,30.68,23.49,64.2,0,0,0,0,0,0.5,0,0,9999,9999,9,999999999,0,0.0,0,0,0.0,0.0
1997,1,1,18,52,?9?9?9?9E0?9?9?9*9*9?9?9?9?9?9?9*9?9*9*9?9*9,30.68,23.49,64.2,0,0,0,0,0,0.5,0,0,9999,9999,9,999999999,0,0.0,0,0,0.0,0.0
1997,1,1,18,53,?9?9?9?9E0?9?9?9*9*9?9?9?9?9?9?9*9?9*9*9?9*9,30.68,23.49,64.2,0,0,0,0,0,0.5,0,0,9999,9999,9,999999999,0,0.0,0,0,0.0,0.0
1997,1,1,18,54,?9?9?9?9E0?9?9?9*9*9?9?9?9?9?9?9*9?9*9*9?9*9,30.68,23.49,64.2,0,0,0,0,0,0.5,0,0,9999,9999,9,999999999,0,0.0,0,0,0.0,0.0
1997,1,1,18,55,?9?9?9?9E0?9?9?9*9*9?9?9?9?9?9?9*9?9*9*9?9*9,30.68,23.49,64.2,0,0,0,0,0,0.5,0,0,9999,9999,9,999999999,0,0.0,0,0,0.0,0.0
1997,1,1,18,56,?9?9?9?9E0?9?9?9*9*9?9?9?9?9?9?9*9?9*9*9?9*9,30.68,23.49,64.2,0,0,0,0,0,0.5,0,0,9999,9999,9,999999999,0,0.0,0,0,0.0,0.0
1997,1,1,18,57,?9?9?9?9E0?9?9?9*9*9?9?9?9?9?9?9*9?9*9*9?9*9,30.68,23.49,64.2,0,0,0,0,0,0.5,0,0,9999,9999,9,999999999,0,0.0,0,0,0.0,0.0
1997,1,1,18,58,?9?9?9?9E0?9?9?9*9*9?9?9?9?9?9?9*9?9*9*9?9*9,30.68,23.49,64.2,0,0,0,0,0,0.5,0,0,9999,9999,9,999999999,0,0.0,0,0,0.0,0.0
1997,1,1,18,59,?9?9?9?9E0?9?9?9*9*9?9?9?9?9?9?9*9?9*9*9?9*9,30.68,23.49,64.2,0,0,0,0,0,0.5,0,0,9999,9999,9,999999999,0,0.0,0,0,0.0,0.0
1997,1,1,18,60,?9?9?9?9E0?9?9?9*9*9?9?9?9?9?9?9*9?9*9*9?9*9,30.68,23.49,64.2,0,0,0,0,0,0.5,0,0,9999,9999,9,999999999,0,0.0,0,0,0.0,0.0
1997,1,1,19,1,?9?9?9?9E0?9?9?9*9*9?9?9?9?9?9?9*9?9*9*9?9*9,30.68,23.49,64.2,0,0,0,0,0,0.5,0,0,9999,9999,9,999999999,0,0.0,0,0,0.0,0.0
1997,1,1,19,2,?9?9?9?9E0?9?9?9*9*9?9?9?9?9?9?9*9?9*9*9?9*9,30.68,23.49,64.2,0,0,0,0,0,0.5,0,0,9999,9999,9,999999999,0,0.0,0,0,0.0,0.0
1997,1,1,19,3,?9?9?9?9E0?9?9?9*9*9?9?9?9?9?9?9*9?9*9*9?9*9,30.68,23.49,64.2,0,0,0,0,0,0.5,0,0,9999,9999,9,999999999,0,0.0,0,0,0.0,0.0
1997,1,1,19,4,?9?9?9?9E0?9?9?9*9*9?9?9?9?9?9?9*9?9*9*9?9*9,30.68,23.49,64.2,0,0,0,0,0,0.5,0,0,9999,9999,9,999999999,0,0.0,0,0,0.0,0.0
1997,1,1,19,5,?9?9?9?9E0?9?9?9*9*9?9?9?9?9?9?9*9?9*9*9?9*9,30.68,23.49,64.2,0,0,0,0,0,0.5,0,0,9999,9999,9,999999999,0,0.0,0,0,0.0,0.0
1997,1,1,19,6,?9?9?9?9E0?9?9?9*9*9?9?9?9?9?9?9*9?9*9*9?9*9,30.68,23.49,64.2,0,0,0,0,0,0.5,0,0,9999,9999,9,999999999,0,0.0,0,0,0.0,0.0
1997,1,1,19,7,?9?9?9?9E0?9?9?9*9*9?9?9?9?9?9?9*9?9*9*9?9*9,30.68,23.49,64.2,0,0,0,0,0,0.5,0,0,9999,9999,9,999999999,0,0.0,0,0,0.0,0.0
1997,1,1,19,8,?9?9?9?9E0?9?9?9*9*9?9?9?9?9?9?9*9?9*9*9?9*9,30.68,23.49,64.2,0,0,0,0,0,0.5,0,0,9999,9999,9,999999999,0,0.0,0,0,0.0,0.0
1997,1,1,19,9,?9?9?9?9E0?9?9?9*9*9?9?9?9?9?9?9*9?9*9*9?9*9,30.68,23.49,64.2,0,0,0,0,0,0.5,0,0,9999,9999,9,999999999,0,0.0,0,0,0.0,0.0
1997,1,1,19,10,?9?9?9?9E0?9?9?9*9*9?9?9?9?9?9?9*9?9*9*9?9*9,30.68,23.49,64.2,0,0,0,0,0,0.5,0,0,9999,9999,9,999999999,0,0.0,0,0,0.0,0.0
1997,1,1,19,11,?9?9?9?9E0?9?9?9*9*9?9?9?9?9?9?9*9?9*9*9?9*9,30.68,23.49,64.2,0,0,0,0,0,0.5,0,0,9999,9999,9,999999999,0,0.0,0,0,0.0,0.0
1997,1,1,19,12,?9?9?9?9E0?9?9?9*9*9?9?9?9?9?9?9*9?9*9*9?9*9,30.68,23.49,64.2,0,0,0,0,0,0.5,0,0,9999,9999,9,999999999,0,0.0,0,0,0.0,0.0
1997,1,1,19,13,?9?9?9?9E0?9?9?9*9*9?9?9?9?9?9?9*9?9*9*9?9*9,30.68,23.49,64.2,0,0,0,0,0,0.5,0,0,9999,9999,9,999999999,0,0.0,0,0,0.0,0.0
1997,1,1,19,14,?9?9?9?9E0?9?9?9*9*9?9?9?9?9?9?9*9?9*9*9?9*9,30.68,23.49,64.2,0,0,0,0,0,0.5,0,0,9999,9999,9,999999999,0,0.0,0,0,0.0,0.0
1997,1,1,19,15,?9?9?9?9E0?9?9?9*9*9?9?9?9?9?9?9*9?9*9*9?9*9,30.68,23.49,64.2,0,0,0,0,0,0.5,0,0,9999,9999,9,999999999,0,0.0,0,0,0.0,0.0
1997,1,1,19,16,?9?9?9?9E0?9?9?9*9*9?9?9?9?9?9?9*9?9*9*9?9*9,30.68,23.49,64.2,0,0,0,0,0,0.5,0,0,9999,9999,9,999999999,0,0.0,0,0,0.0,0.0
1997,1,1,19,17,?9?9?9?9E0?9?9?9*9*9?9?9?9?9?9?9*9?9*9*9?9*9,30.68,23.49,64.2,0,0,0,0,0,0.5,0,0,9999,9999,9,999999999,0,0.0,0,0,0.0,0.0
1997,1,1,19,18,?9?9?9?9E0?9?9?9*9*9?9?9?9?9?9?9*9?9*9*9?9*9,30.68,23.49,64.2,0,0,0,0,0,0.5,0,0,9999,9999,9,999999999,0,0.0,0,0,0.0,0.0
1997,1,1,19,19,?9?9?9?9E0?9?9?9*9*9?9?9?9?9?9?9*9?9*9*9?9*9,30.68,23.49,64.2,0,0,0,0,0,0.5,0,0,9999,9999,9,999999999,0,0.0,0,0,0.0,0.0
1997,1,1,19,20,?9?9?9?9E0?9?9?9*9*9?9?9?9?9?9?9*9?9*9*9?9*9,30.68,23.49,64.2,0,0,0,0,0,0.5,0,0,9999,9999,9,999999999,0,0.0,0,0,0.0,0.0
1997,1,1,19,21,?9?9?9?9E0?9?9?9*9*9?9?9?9?9?9?9*9?9*9*9?9*9,30.68,23.49,64.2,0,0,0,0,0,0.5,0,0,9999,9999,9,999999999,0,0.0,0,0,0.0,0.0
1997,1,1,19,22,?9?9?9?9E0?9?9?9*9*9?9?9?9?9?9?9*9?9*9*9?9*9,30.68,23.49,64.2,0,0,0,0,0,0.5,0,0,9999,9999,9,999999999,0,0.0,0,0,0.0,0.0
1997,1,1,19,23,?9?9?9?9E0?9?9?9*9*9?9?9?9?9?9?9*9?9*9*9?9*9,30.68,23.49,64.2,0,0,0,0,0,0.5,0,0,9999,9999,9,999999999,0,0.0,0,0,0.0,0.0
1997,1,1,19,24,?9?9?9?9E0?9?9?9*9*9?9?9?9?9?9?9*9?9*9*9?9*9,30.68,23.49,64.2,0,0,0,0,0,0.5,0,0,9999,9999,9,999999999,0,0.0,0,0,0.0,0.0
1997,1,1,19,25,?9?9?9?9E0?9?9?9*9*9?9?9?9?9?9?9*9?9*9*9?9*9,30.68,23.49,64.2,0,0,0,0,0,0.5,0,0,9999,9999,9,999999999,0,0.0,0,0,0.0,0.0
1997,1,1,19,26,?9?9?9?9E0?9?9?9*9*9?9?9?9?9?9?9*9?9*9*9?9*9,30.68,23.49,64.2,0,0,0,0,0,0.5,0,0,9999,9999,9,999999999,0,0.0,0,0,0.0,0.0
1997,1,1,19,27,?9?9?9?9E0?9?9?9*9*9?9?9?9?9?9?9*9?9*9*9?9*9,30.68,23.49,64.2,0,0,0,0,0,0.5,0,0,9999,9999,9,999999999,0,0.0,0,0,0.0,0.0
1997,1,1,19,28,?9?9?9?9E0?9?9?9*9*9?9?9?9?9?9?9*9?9*9*9?9*9,30.68,23.49,64.2,0,0,0,0,0,0.5,0,0,9999,9999,9,999999999,0,0.0,0,0,0.0,0.0
1997,1,1,19,29,?9?9?9?9E0?9?9?9*9*9?9?9?9?9?9?9*9?9*9*9?9*9,30.68,23.49,64.2,0,0,0,0,0,0.5,0,0,9999,9999,9,999999999,0,0.0,0,0,0.0,0.0
1997,1,1,19,30,?9?9?9?9E0?9?9?9*9*9?9?9?9?9?9?9*9?9*9*9?9*9,30.68,23.49,64.2,0,0,0,0,0,0.5,0,0,9999,9999,9,999999999,0,0.0,0,0,0.0,0.0
1997,1,1,19,31,?9?9?9?9E0?9?9?9*9*9?9?9?9?9?9?9*9?9*9*9?9*9,30.68,23.49,64.2,0,0,0,0,0,0.5,0,0,9999,9999,9,999999999,0,0.0,0,0,0.0,0.0
1997,1,1,19,32,?9?9?9?9E0?9?9?9*9*9?9?9?9?9?9?9*9?9*9*9?9*9,30.68,23.49,64.2,0,0,0,0,0,0.5,0,0,9999,9999,9,999999999,0,0.0,0,0,0.0,0.0
1997,1,1,19,33,?9?9?9?9E0?9?9?9*9*9?9?9?9?9?9?9*9?9*9*9?9*9,30.68,23.49,64.2,0,0,0,0,0,0.5,0,0,9999,9999,9,999999999,0,0.0,0,0,0.0,0.0
1997,1,1,19,34,?9?9?9?9E0?9?9?9*9*9?9?9?9?9?9?9*9?9*9*9?9*9,30.68,23.49,64.2,0,0,0,0,0,0.5,0,0,9999,9999,9,999999999,0,0.0,0,0,0.0,0.0
1997,1,1,19,35,?9?9?9?9E0?9?9?9*9*9?9?9?9?9?9?9*9?9*9*9?9*9,30.68,23.49,64.2,0,0,0,0,0,0.5,0,0,9999,9999,9,999999999,0,0.0,0,0,0.0,0.0
1997,1,1,19,36,?9?9?9?9E0?9?9?9*9*9?9?9?9?9?9?9*9?9*9*9?9*9,30.68,23.49,64.2,0,0,0,0,0,0.5,0,0,9999,9999,9,999999999,0,0.0,0,0,0.0,0.0
1997,1,1,19,37,?9?9?9?9E0?9?9?9*9*9?9?9?9?9?9?9*9?9*9*9?9*9,30.68,23.49,64.2,0,0,0,0,0,0.5,0,0,9999,9999,9,999999999,0,0.0,0,0,0.0,0.0
1997,1,1,19,38,?9?9?9?9E0?9?9?9*9*9?9?9?9?9?9?9*9?9*9*9?9*9,30.68,23.49,64.2,0,0,0,0,0,0.5,0,0,9999,9999,9,999999999,0,0.0,0,0,0.0,0.0
1997,1,1,19,39,?9?9?9?9E0?9?9?9*9*9?9?9?9?9?9?9*9?9*9*9?9*9,30.68,23.49,64.2,0,0,0,0,0,0.5,0,0,9999,9999,9,999999999,0,0.0,0,0,0.0,0.0
1997,1,1,19,40,?9?9?9?9E0?9?9?9*9*9?9?9?9?9?9?9*9?9*9*9?9*9,30.68,23.49,64.2,0,0,0,0,0,0.5,0,0,9999,9999,9,999999999,0,0.0,0,0,0.0,0.0
1997,1,1,19,41,?9?9?9?9E0?9?9?9*9*9?9?9?9?9?9?9*9?9*9*9?9*9,30.68,23.49,64.2,0,0,0,0,0,0.5,0,0,9999,9999,9,999999999,0,0.0,0,0,0.0,0.0
1997,1,1,19,42,?9?9?9?9E0?9?9?9*9*9?9?9?9?9?9?9*9?9*9*9?9*9,30.68,23.49,64.2,0,0,0,0,0,0.5,0,0,9999,9999,9,999999999,0,0.0,0,0,0.0,0.0
1997,1,1,19,43,?9?9?9?9E0?9?9?9*9*9?9?9?9?9?9?9*9?9*9*9?9*9,30.68,23.49,64.2,0,0,0,0,0,0.5,0,0,9999,9999,9,999999999,0,0.0,0,0,0.0,0.0
1997,1,1,19,44,?9?9?9?9E0?9?9?9*9*9?9?9?9?9?9?9*9?9*9*9?9*9,30.68,23.49,64.2,0,0,0,0,0,0.5,0,0,9999,9999,9,999999999,0,0.0,0,0,0.0,0.0
1997,1,1,19,45,?9?9?9?9E0?9?9?9*9*9?9?9?9?9?9?9*9?9*9*9?9*9,30.68,23.49,64.2,0,0,0,0,0,0.5,0,0,9999,9999,9,999999999,0,0.0,0,0,0.0,0.0
1997,1,1,19,46,?9?9?9?9E0?9?9?9*9*9?9?9?9?9?9?9*9?9*9*9?9*9,30.68,23.49,64.2,0,0,0,0,0,0.5,0,0,9999,9999,9,999999999,0,0.0,0,0,0.0,0.0
1997,1,1,19,47,?9?9?9?9E0?9?9?9*9*9?9?9?9?9?9?9*9?9*9*9?9*9,30.68,23.49,64.2,0,0,0,0,0,0.5,0,0,9999,9999,9,999999999,0,0.0,0,0,0.0,0.0
1997,1,1,19,48,?9?9?9?9E0?9?9?9*9*9?9?9?9?9?9?9*9?9*9*9?9*9,30.68,23.49,64.2,0,0,0,0,0,0.5,0,0,9999,9999,9,999999999,0,0.0,0,0,0.0,0.0
1997,1,1,19,49,?9?9?9?9E0?9?9?9*9*9?9?9?9?9?9?9*9?9*9*9?9*9,30.68,23.49,64.2,0,0,0,0,0,0.5,0,0,9999,9999,9,999999999,0,0.0,0,0,0.0,0.0
1997,1,1,19,50,?9?9?9?9E0?9?9?9*9*9?9?9?9?9?9?9*9?9*9*9?9*9,30.68,23.49,64.2,0,0,0,0,0,0.5,0,0,9999,9999,9,999999999,0,0.0,0,0,0.0,0.0
1997,1,1,19,51,?9?9?9?9E0?9?9?9*9*9?9?9?9?9?9?9*9?9*9*9?9*9,30.68,23.49,64.2,0,0,0,0,0,0.5,0,0,9999,9999,9,999999999,0,0.0,0,0,0.0,0.0
1997,1,1,19,52,?9?9?9?9E0?9?9?9*9*9?9?9?9?9?9?9*9?9*9*9?9*9,30.68,23.49,64.2,0,0,0,0,0,0.5,0,0,9999,9999,9,999999999,0,0.0,0,0,0.0,0.0
1997,1,1,19,53,?9?9?9?9E0?9?9?9*9*9?9?9?9?9?9?9*9?9*9*9?9*9,30.68,23.49,64.2,0,0,0,0,0,0.5,0,0,9999,9999,9,999999999,0,0.0,0,0,0.0,0.0
1997,1,1,19,54,?9?9?9?9E0?9?9?9*9*9?9?9?9?9?9?9*9?9*9*9?9*9,30.68,23.49,64.2,0,0,0,0,0,0.5,0,0,9999,9999,9,999999999,0,0.0,0,0,0.0,0.0
1997,1,1,19,55,?9?9?9?9E0?9?9?9*9*9?9?9?9?9?9?9*9?9*9*9?9*9,30.68,23.49,64.2,0,0,0,0,0,0.5,0,0,9999,9999,9,999999999,0,0.0,0,0,0.0,0.0
1997,1,1,19,56,?9?9?9?9E0?9?9?9*9*9?9?9?9?9?9?9*9?9*9*9?9*9,30.68,23.49,64.2,0,0,0,0,0,0.5,0,0,9999,9999,9,999999999,0,0.0,0,0,0.0,0.0
1997,1,1,19,57,?9?9?9?9E0?9?9?9*9*9?9?9?9?9?9?9*9?9*9*9?9*9,30.68,23.49,64.2,0,0,0,0,0,0.5,0,0,9999,9999,9,999999999,0,0.0,0,0,0.0,0.0
1997,1,1,19,58,?9?9?9?9E0?9?9?9*9*9?9?9?9?9?9?9*9?9*9*9?9*9,30.68,23.49,64.2,0,0,0,0,0,0.5,0,0,9999,9999,9,999999999,0,0.0,0,0,0.0,0.0
1997,1,1,19,59,?9?9?9?9E0?9?9?9*9*9?9?9?9?9?9?9*9?9*9*9?9*9,30.68,23.49,64.2,0,0,0,0,0,0.5,0,0,9999,9999,9,999999999,0,0.0,0,0,0.0,0.0
1997,1,1,19,60,?9?9?9?9E0?9?9?9*9*9?9?9?9?9?9?9*9?9*9*9?9*9,30.68,23.49,64.2,0,0,0,0,0,0.5,0,0,9999,9999,9,999999999,0,0.0,0,0,0.0,0.0
1997,1,1,20,1,?9?9?9?9E0?9?9?9*9*9?9?9?9?9?9?9*9?9*9*9?9*9,30.68,23.49,64.2,0,0,0,0,0,0.5,0,0,9999,9999,9,999999999,0,0.0,0,0,0.0,0.0
1997,1,1,20,2,?9?9?9?9E0?9?9?9*9*9?9?9?9?9?9?9*9?9*9*9?9*9,30.68,23.49,64.2,0,0,0,0,0,0.5,0,0,9999,9999,9,999999999,0,0.0,0,0,0.0,0.0
1997,1,1,20,3,?9?9?9?9E0?9?9?9*9*9?9?9?9?9?9?9*9?9*9*9?9*9,30.68,23.49,64.2,0,0,0,0,0,0.5,0,0,9999,9999,9,999999999,0,0.0,0,0,0.0,0.0
1997,1,1,20,4,?9?9?9?9E0?9?9?9*9*9?9?9?9?9?9?9*9?9*9*9?9*9,30.68,23.49,64.2,0,0,0,0,0,0.5,0,0,9999,9999,9,999999999,0,0.0,0,0,0.0,0.0
1997,1,1,20,5,?9?9?9?9E0?9?9?9*9*9?9?9?9?9?9?9*9?9*9*9?9*9,30.68,23.49,64.2,0,0,0,0,0,0.5,0,0,9999,9999,9,999999999,0,0.0,0,0,0.0,0.0
1997,1,1,20,6,?9?9?9?9E0?9?9?9*9*9?9?9?9?9?9?9*9?9*9*9?9*9,30.68,23.49,64.2,0,0,0,0,0,0.5,0,0,9999,9999,9,999999999,0,0.0,0,0,0.0,0.0
1997,1,1,20,7,?9?9?9?9E0?9?9?9*9*9?9?9?9?9?9?9*9?9*9*9?9*9,30.68,23.49,64.2,0,0,0,0,0,0.5,0,0,9999,9999,9,999999999,0,0.0,0,0,0.0,0.0
1997,1,1,20,8,?9?9?9?9E0?9?9?9*9*9?9?9?9?9?9?9*9?9*9*9?9*9,30.68,23.49,64.2,0,0,0,0,0,0.5,0,0,9999,9999,9,999999999,0,0.0,0,0,0.0,0.0
1997,1,1,20,9,?9?9?9?9E0?9?9?9*9*9?9?9?9?9?9?9*9?9*9*9?9*9,30.68,23.49,64.2,0,0,0,0,0,0.5,0,0,9999,9999,9,999999999,0,0.0,0,0,0.0,0.0
1997,1,1,20,10,?9?9?9?9E0?9?9?9*9*9?9?9?9?9?9?9*9?9*9*9?9*9,30.68,23.49,64.2,0,0,0,0,0,0.5,0,0,9999,9999,9,999999999,0,0.0,0,0,0.0,0.0
1997,1,1,20,11,?9?9?9?9E0?9?9?9*9*9?9?9?9?9?9?9*9?9*9*9?9*9,30.68,23.49,64.2,0,0,0,0,0,0.5,0,0,9999,9999,9,999999999,0,0.0,0,0,0.0,0.0
1997,1,1,20,12,?9?9?9?9E0?9?9?9*9*9?9?9?9?9?9?9*9?9*9*9?9*9,30.68,23.49,64.2,0,0,0,0,0,0.5,0,0,9999,9999,9,999999999,0,0.0,0,0,0.0,0.0
1997,1,1,20,13,?9?9?9?9E0?9?9?9*9*9?9?9?9?9?9?9*9?9*9*9?9*9,30.68,23.49,64.2,0,0,0,0,0,0.5,0,0,9999,9999,9,999999999,0,0.0,0,0,0.0,0.0
1997,1,1,20,14,?9?9?9?9E0?9?9?9*9*9?9?9?9?9?9?9*9?9*9*9?9*9,30.68,23.49,64.2,0,0,0,0,0,0.5,0,0,9999,9999,9,999999999,0,0.0,0,0,0.0,0.0
1997,1,1,20,15,?9?9?9?9E0?9?9?9*9*9?9?9?9?9?9?9*9?9*9*9?9*9,30.68,23.49,64.2,0,0,0,0,0,0.5,0,0,9999,9999,9,999999999,0,0.0,0,0,0.0,0.0
1997,1,1,20,16,?9?9?9?9E0?9?9?9*9*9?9?9?9?9?9?9*9?9*9*9?9*9,30.68,23.49,64.2,0,0,0,0,0,0.5,0,0,9999,9999,9,999999999,0,0.0,0,0,0.0,0.0
1997,1,1,20,17,?9?9?9?9E0?9?9?9*9*9?9?9?9?9?9?9*9?9*9*9?9*9,30.68,23.49,64.2,0,0,0,0,0,0.5,0,0,9999,9999,9,999999999,0,0.0,0,0,0.0,0.0
1997,1,1,20,18,?9?9?9?9E0?9?9?9*9*9?9?9?9?9?9?9*9?9*9*9?9*9,30.68,23.49,64.2,0,0,0,0,0,0.5,0,0,9999,9999,9,999999999,0,0.0,0,0,0.0,0.0
1997,1,1,20,19,?9?9?9?9E0?9?9?9*9*9?9?9?9?9?9?9*9?9*9*9?9*9,30.68,23.49,64.2,0,0,0,0,0,0.5,0,0,9999,9999,9,999999999,0,0.0,0,0,0.0,0.0
1997,1,1,20,20,?9?9?9?9E0?9?9?9*9*9?9?9?9?9?9?9*9?9*9*9?9*9,30.68,23.49,64.2,0,0,0,0,0,0.5,0,0,9999,9999,9,999999999,0,0.0,0,0,0.0,0.0
1997,1,1,20,21,?9?9?9?9E0?9?9?9*9*9?9?9?9?9?9?9*9?9*9*9?9*9,30.68,23.49,64.2,0,0,0,0,0,0.5,0,0,9999,9999,9,999999999,0,0.0,0,0,0.0,0.0
1997,1,1,20,22,?9?9?9?9E0?9?9?9*9*9?9?9?9?9?9?9*9?9*9*9?9*9,30.68,23.49,64.2,0,0,0,0,0,0.5,0,0,9999,9999,9,999999999,0,0.0,0,0,0.0,0.0
1997,1,1,20,23,?9?9?9?9E0?9?9?9*9*9?9?9?9?9?9?9*9?9*9*9?9*9,30.68,23.49,64.2,0,0,0,0,0,0.5,0,0,9999,9999,9,999999999,0,0.0,0,0,0.0,0.0
1997,1,1,20,24,?9?9?9?9E0?9?9?9*9*9?9?9?9?9?9?9*9?9*9*9?9*9,30.68,23.49,64.2,0,0,0,0,0,0.5,0,0,9999,9999,9,999999999,0,0.0,0,0,0.0,0.0
1997,1,1,20,25,?9?9?9?9E0?9?9?9*9*9?9?9?9?9?9?9*9?9*9*9?9*9,30.68,23.49,64.2,0,0,0,0,0,0.5,0,0,9999,9999,9,999999999,0,0.0,0,0,0.0,0.0
1997,1,1,20,26,?9?9?9?9E0?9?9?9*9*9?9?9?9?9?9?9*9?9*9*9?9*9,30.68,23.49,64.2,0,0,0,0,0,0.5,0,0,9999,9999,9,999999999,0,0.0,0,0,0.0,0.0
1997,1,1,20,27,?9?9?9?9E0?9?9?9*9*9?9?9?9?9?9?9*9?9*9*9?9*9,30.68,23.49,64.2,0,0,0,0,0,0.5,0,0,9999,9999,9,999999999,0,0.0,0,0,0.0,0.0
1997,1,1,20,28,?9?9?9?9E0?9?9?9*9*9?9?9?9?9?9?9*9?9*9*9?9*9,30.68,23.49,64.2,0,0,0,0,0,0.5,0,0,9999,9999,9,999999999,0,0.0,0,0,0.0,0.0
1997,1,1,20,29,?9?9?9?9E0?9?9?9*9*9?9?9?9?9?9?9*9?9*9*9?9*9,30.68,23.49,64.2,0,0,0,0,0,0.5,0,0,9999,9999,9,999999999,0,0.0,0,0,0.0,0.0
1997,1,1,20,30,?9?9?9?9E0?9?9?9*9*9?9?9?9?9?9?9*9?9*9*9?9*9,30.68,23.49,64.2,0,0,0,0,0,0.5,0,0,9999,9999,9,999999999,0,0.0,0,0,0.0,0.0
1997,1,1,20,31,?9?9?9?9E0?9?9?9*9*9?9?9?9?9?9?9*9?9*9*9?9*9,30.68,23.49,64.2,0,0,0,0,0,0.5,0,0,9999,9999,9,999999999,0,0.0,0,0,0.0,0.0
1997,1,1,20,32,?9?9?9?9E0?9?9?9*9*9?9?9?9?9?9?9*9?9*9*9?9*9,30.68,23.49,64.2,0,0,0,0,0,0.5,0,0,9999,9999,9,999999999,0,0.0,0,0,0.0,0.0
1997,1,1,20,33,?9?9?9?9E0?9?9?9*9*9?9?9?9?9?9?9*9?9*9*9?9*9,30.68,23.49,64.2,0,0,0,0,0,0.5,0,0,9999,9999,9,999999999,0,0.0,0,0,0.0,0.0
1997,1,1,20,34,?9?9?9?9E0?9?9?9*9*9?9?9?9?9?9?9*9?9*9*9?9*9,30.68,23.49,64.2,0,0,0,0,0,0.5,0,0,9999,9999,9,999999999,0,0.0,0,0,0.0,0.0
1997,1,1,20,35,?9?9?9?9E0?9?9?9*9*9?9?9?9?9?9?9*9?9*9*9?9*9,30.68,23.49,64.2,0,0,0,0,0,0.5,0,0,9999,9999,9,999999999,0,0.0,0,0,0.0,0.0
1997,1,1,20,36,?9?9?9?9E0?9?9?9*9*9?9?9?9?9?9?9*9?9*9*9?9*9,30.68,23.49,64.2,0,0,0,0,0,0.5,0,0,9999,9999,9,999999999,0,0.0,0,0,0.0,0.0
1997,1,1,20,37,?9?9?9?9E0?9?9?9*9*9?9?9?9?9?9?9*9?9*9*9?9*9,30.68,23.49,64.2,0,0,0,0,0,0.5,0,0,9999,9999,9,999999999,0,0.0,0,0,0.0,0.0
1997,1,1,20,38,?9?9?9?9E0?9?9?9*9*9?9?9?9?9?9?9*9?9*9*9?9*9,30.68,23.49,64.2,0,0,0,0,0,0.5,0,0,9999,9999,9,999999999,0,0.0,0,0,0.0,0.0
1997,1,1,20,39,?9?9?9?9E0?9?9?9*9*9?9?9?9?9?9?9*9?9*9*9?9*9,30.68,23.49,64.2,0,0,0,0,0,0.5,0,0,9999,9999,9,999999999,0,0.0,0,0,0.0,0.0
1997,1,1,20,40,?9?9?9?9E0?9?9?9*9*9?9?9?9?9?9?9*9?9*9*9?9*9,30.68,23.49,64.2,0,0,0,0,0,0.5,0,0,9999,9999,9,999999999,0,0.0,0,0,0.0,0.0
1997,1,1,20,41,?9?9?9?9E0?9?9?9*9*9?9?9?9?9?9?9*9?9*9*9?9*9,30.68,23.49,64.2,0,0,0,0,0,0.5,0,0,9999,9999,9,999999999,0,0.0,0,0,0.0,0.0
1997,1,1,20,42,?9?9?9?9E0?9?9?9*9*9?9?9?9?9?9?9*9?9*9*9?9*9,30.68,23.49,64.2,0,0,0,0,0,0.5,0,0,9999,9999,9,999999999,0,0.0,0,0,0.0,0.0
1997,1,1,20,43,?9?9?9?9E0?9?9?9*9*9?9?9?9?9?9?9*9?9*9*9?9*9,30.68,23.49,64.2,0,0,0,0,0,0.5,0,0,9999,9999,9,999999999,0,0.0,0,0,0.0,0.0
1997,1,1,20,44,?9?9?9?9E0?9?9?9*9*9?9?9?9?9?9?9*9?9*9*9?9*9,30.68,23.49,64.2,0,0,0,0,0,0.5,0,0,9999,9999,9,999999999,0,0.0,0,0,0.0,0.0
1997,1,1,20,45,?9?9?9?9E0?9?9?9*9*9?9?9?9?9?9?9*9?9*9*9?9*9,30.68,23.49,64.2,0,0,0,0,0,0.5,0,0,9999,9999,9,999999999,0,0.0,0,0,0.0,0.0
1997,1,1,20,46,?9?9?9?9E0?9?9?9*9*9?9?9?9?9?9?9*9?9*9*9?9*9,30.68,23.49,64.2,0,0,0,0,0,0.5,0,0,9999,9999,9,999999999,0,0.0,0,0,0.0,0.0
1997,1,1,20,47,?9?9?9?9E0?9?9?9*9*9?9?9?9?9?9?9*9?9*9*9?9*9,30.68,23.49,64.2,0,0,0,0,0,0.5,0,0,9999,9999,9,999999999,0,0.0,0,0,0.0,0.0
1997,1,1,20,48,?9?9?9?9E0?9?9?9*9*9?9?9?9?9?9?9*9?9*9*9?9*9,30.68,23.49,64.2,0,0,0,0,0,0.5,0,0,9999,9999,9,999999999,0,0.0,0,0,0.0,0.0
1997,1,1,20,49,?9?9?9?9E0?9?9?9*9*9?9?9?9?9?9?9*9?9*9*9?9*9,30.68,23.49,64.2,0,0,0,0,0,0.5,0,0,9999,9999,9,999999999,0,0.0,0,0,0.0,0.0
1997,1,1,20,50,?9?9?9?9E0?9?9?9*9*9?9?9?9?9?9?9*9?9*9*9?9*9,30.68,23.49,64.2,0,0,0,0,0,0.5,0,0,9999,9999,9,999999999,0,0.0,0,0,0.0,0.0
1997,1,1,20,51,?9?9?9?9E0?9?9?9*9*9?9?9?9?9?9?9*9?9*9*9?9*9,30.68,23.49,64.2,0,0,0,0,0,0.5,0,0,9999,9999,9,999999999,0,0.0,0,0,0.0,0.0
1997,1,1,20,52,?9?9?9?9E0?9?9?9*9*9?9?9?9?9?9?9*9?9*9*9?9*9,30.68,23.49,64.2,0,0,0,0,0,0.5,0,0,9999,9999,9,999999999,0,0.0,0,0,0.0,0.0
1997,1,1,20,53,?9?9?9?9E0?9?9?9*9*9?9?9?9?9?9?9*9?9*9*9?9*9,30.68,23.49,64.2,0,0,0,0,0,0.5,0,0,9999,9999,9,999999999,0,0.0,0,0,0.0,0.0
1997,1,1,20,54,?9?9?9?9E0?9?9?9*9*9?9?9?9?9?9?9*9?9*9*9?9*9,30.68,23.49,64.2,0,0,0,0,0,0.5,0,0,9999,9999,9,999999999,0,0.0,0,0,0.0,0.0
1997,1,1,20,55,?9?9?9?9E0?9?9?9*9*9?9?9?9?9?9?9*9?9*9*9?9*9,30.68,23.49,64.2,0,0,0,0,0,0.5,0,0,9999,9999,9,999999999,0,0.0,0,0,0.0,0.0
1997,1,1,20,56,?9?9?9?9E0?9?9?9*9*9?9?9?9?9?9?9*9?9*9*9?9*9,30.68,23.49,64.2,0,0,0,0,0,0.5,0,0,9999,9999,9,999999999,0,0.0,0,0,0.0,0.0
1997,1,1,20,57,?9?9?9?9E0?9?9?9*9*9?9?9?9?9?9?9*9?9*9*9?9*9,30.68,23.49,64.2,0,0,0,0,0,0.5,0,0,9999,9999,9,999999999,0,0.0,0,0,0.0,0.0
1997,1,1,20,58,?9?9?9?9E0?9?9?9*9*9?9?9?9?9?9?9*9?9*9*9?9*9,30.68,23.49,64.2,0,0,0,0,0,0.5,0,0,9999,9999,9,999999999,0,0.0,0,0,0.0,0.0
1997,1,1,20,59,?9?9?9?9E0?9?9?9*9*9?9?9?9?9?9?9*9?9*9*9?9*9,30.68,23.49,64.2,0,0,0,0,0,0.5,0,0,9999,9999,9,999999999,0,0.0,0,0,0.0,0.0
1997,1,1,20,60,?9?9?9?9E0?9?9?9*9*9?9?9?9?9?9?9*9?9*9*9?9*9,30.68,23.49,64.2,0,0,0,0,0,0.5,0,0,9999,9999,9,999999999,0,0.0,0,0,0.0,0.0
1997,1,1,21,1,?9?9?9?9E0?9?9?9*9*9?9?9?9?9?9?9*9?9*9*9?9*9,30.68,23.49,64.2,0,0,0,0,0,0.5,0,0,9999,9999,9,999999999,0,0.0,0,0,0.0,0.0
1997,1,1,21,2,?9?9?9?9E0?9?9?9*9*9?9?9?9?9?9?9*9?9*9*9?9*9,30.68,23.49,64.2,0,0,0,0,0,0.5,0,0,9999,9999,9,999999999,0,0.0,0,0,0.0,0.0
1997,1,1,21,3,?9?9?9?9E0?9?9?9*9*9?9?9?9?9?9?9*9?9*9*9?9*9,30.68,23.49,64.2,0,0,0,0,0,0.5,0,0,9999,9999,9,999999999,0,0.0,0,0,0.0,0.0
1997,1,1,21,4,?9?9?9?9E0?9?9?9*9*9?9?9?9?9?9?9*9?9*9*9?9*9,30.68,23.49,64.2,0,0,0,0,0,0.5,0,0,9999,9999,9,999999999,0,0.0,0,0,0.0,0.0
1997,1,1,21,5,?9?9?9?9E0?9?9?9*9*9?9?9?9?9?9?9*9?9*9*9?9*9,30.68,23.49,64.2,0,0,0,0,0,0.5,0,0,9999,9999,9,999999999,0,0.0,0,0,0.0,0.0
1997,1,1,21,6,?9?9?9?9E0?9?9?9*9*9?9?9?9?9?9?9*9?9*9*9?9*9,30.68,23.49,64.2,0,0,0,0,0,0.5,0,0,9999,9999,9,999999999,0,0.0,0,0,0.0,0.0
1997,1,1,21,7,?9?9?9?9E0?9?9?9*9*9?9?9?9?9?9?9*9?9*9*9?9*9,30.68,23.49,64.2,0,0,0,0,0,0.5,0,0,9999,9999,9,999999999,0,0.0,0,0,0.0,0.0
1997,1,1,21,8,?9?9?9?9E0?9?9?9*9*9?9?9?9?9?9?9*9?9*9*9?9*9,30.68,23.49,64.2,0,0,0,0,0,0.5,0,0,9999,9999,9,999999999,0,0.0,0,0,0.0,0.0
1997,1,1,21,9,?9?9?9?9E0?9?9?9*9*9?9?9?9?9?9?9*9?9*9*9?9*9,30.68,23.49,64.2,0,0,0,0,0,0.5,0,0,9999,9999,9,999999999,0,0.0,0,0,0.0,0.0
1997,1,1,21,10,?9?9?9?9E0?9?9?9*9*9?9?9?9?9?9?9*9?9*9*9?9*9,30.68,23.49,64.2,0,0,0,0,0,0.5,0,0,9999,9999,9,999999999,0,0.0,0,0,0.0,0.0
1997,1,1,21,11,?9?9?9?9E0?9?9?9*9*9?9?9?9?9?9?9*9?9*9*9?9*9,30.68,23.49,64.2,0,0,0,0,0,0.5,0,0,9999,9999,9,999999999,0,0.0,0,0,0.0,0.0
1997,1,1,21,12,?9?9?9?9E0?9?9?9*9*9?9?9?9?9?9?9*9?9*9*9?9*9,30.68,23.49,64.2,0,0,0,0,0,0.5,0,0,9999,9999,9,999999999,0,0.0,0,0,0.0,0.0
1997,1,1,21,13,?9?9?9?9E0?9?9?9*9*9?9?9?9?9?9?9*9?9*9*9?9*9,30.68,23.49,64.2,0,0,0,0,0,0.5,0,0,9999,9999,9,999999999,0,0.0,0,0,0.0,0.0
1997,1,1,21,14,?9?9?9?9E0?9?9?9*9*9?9?9?9?9?9?9*9?9*9*9?9*9,30.68,23.49,64.2,0,0,0,0,0,0.5,0,0,9999,9999,9,999999999,0,0.0,0,0,0.0,0.0
1997,1,1,21,15,?9?9?9?9E0?9?9?9*9*9?9?9?9?9?9?9*9?9*9*9?9*9,30.68,23.49,64.2,0,0,0,0,0,0.5,0,0,9999,9999,9,999999999,0,0.0,0,0,0.0,0.0
1997,1,1,21,16,?9?9?9?9E0?9?9?9*9*9?9?9?9?9?9?9*9?9*9*9?9*9,30.68,23.49,64.2,0,0,0,0,0,0.5,0,0,9999,9999,9,999999999,0,0.0,0,0,0.0,0.0
1997,1,1,21,17,?9?9?9?9E0?9?9?9*9*9?9?9?9?9?9?9*9?9*9*9?9*9,30.68,23.49,64.2,0,0,0,0,0,0.5,0,0,9999,9999,9,999999999,0,0.0,0,0,0.0,0.0
1997,1,1,21,18,?9?9?9?9E0?9?9?9*9*9?9?9?9?9?9?9*9?9*9*9?9*9,30.68,23.49,64.2,0,0,0,0,0,0.5,0,0,9999,9999,9,999999999,0,0.0,0,0,0.0,0.0
1997,1,1,21,19,?9?9?9?9E0?9?9?9*9*9?9?9?9?9?9?9*9?9*9*9?9*9,30.68,23.49,64.2,0,0,0,0,0,0.5,0,0,9999,9999,9,999999999,0,0.0,0,0,0.0,0.0
1997,1,1,21,20,?9?9?9?9E0?9?9?9*9*9?9?9?9?9?9?9*9?9*9*9?9*9,30.68,23.49,64.2,0,0,0,0,0,0.5,0,0,9999,9999,9,999999999,0,0.0,0,0,0.0,0.0
1997,1,1,21,21,?9?9?9?9E0?9?9?9*9*9?9?9?9?9?9?9*9?9*9*9?9*9,30.68,23.49,64.2,0,0,0,0,0,0.5,0,0,9999,9999,9,999999999,0,0.0,0,0,0.0,0.0
1997,1,1,21,22,?9?9?9?9E0?9?9?9*9*9?9?9?9?9?9?9*9?9*9*9?9*9,30.68,23.49,64.2,0,0,0,0,0,0.5,0,0,9999,9999,9,999999999,0,0.0,0,0,0.0,0.0
1997,1,1,21,23,?9?9?9?9E0?9?9?9*9*9?9?9?9?9?9?9*9?9*9*9?9*9,30.68,23.49,64.2,0,0,0,0,0,0.5,0,0,9999,9999,9,999999999,0,0.0,0,0,0.0,0.0
1997,1,1,21,24,?9?9?9?9E0?9?9?9*9*9?9?9?9?9?9?9*9?9*9*9?9*9,30.68,23.49,64.2,0,0,0,0,0,0.5,0,0,9999,9999,9,999999999,0,0.0,0,0,0.0,0.0
1997,1,1,21,25,?9?9?9?9E0?9?9?9*9*9?9?9?9?9?9?9*9?9*9*9?9*9,30.68,23.49,64.2,0,0,0,0,0,0.5,0,0,9999,9999,9,999999999,0,0.0,0,0,0.0,0.0
1997,1,1,21,26,?9?9?9?9E0?9?9?9*9*9?9?9?9?9?9?9*9?9*9*9?9*9,30.68,23.49,64.2,0,0,0,0,0,0.5,0,0,9999,9999,9,999999999,0,0.0,0,0,0.0,0.0
1997,1,1,21,27,?9?9?9?9E0?9?9?9*9*9?9?9?9?9?9?9*9?9*9*9?9*9,30.68,23.49,64.2,0,0,0,0,0,0.5,0,0,9999,9999,9,999999999,0,0.0,0,0,0.0,0.0
1997,1,1,21,28,?9?9?9?9E0?9?9?9*9*9?9?9?9?9?9?9*9?9*9*9?9*9,30.68,23.49,64.2,0,0,0,0,0,0.5,0,0,9999,9999,9,999999999,0,0.0,0,0,0.0,0.0
1997,1,1,21,29,?9?9?9?9E0?9?9?9*9*9?9?9?9?9?9?9*9?9*9*9?9*9,30.68,23.49,64.2,0,0,0,0,0,0.5,0,0,9999,9999,9,999999999,0,0.0,0,0,0.0,0.0
1997,1,1,21,30,?9?9?9?9E0?9?9?9*9*9?9?9?9?9?9?9*9?9*9*9?9*9,30.68,23.49,64.2,0,0,0,0,0,0.5,0,0,9999,9999,9,999999999,0,0.0,0,0,0.0,0.0
1997,1,1,21,31,?9?9?9?9E0?9?9?9*9*9?9?9?9?9?9?9*9?9*9*9?9*9,30.68,23.49,64.2,0,0,0,0,0,0.5,0,0,9999,9999,9,999999999,0,0.0,0,0,0.0,0.0
1997,1,1,21,32,?9?9?9?9E0?9?9?9*9*9?9?9?9?9?9?9*9?9*9*9?9*9,30.68,23.49,64.2,0,0,0,0,0,0.5,0,0,9999,9999,9,999999999,0,0.0,0,0,0.0,0.0
1997,1,1,21,33,?9?9?9?9E0?9?9?9*9*9?9?9?9?9?9?9*9?9*9*9?9*9,30.68,23.49,64.2,0,0,0,0,0,0.5,0,0,9999,9999,9,999999999,0,0.0,0,0,0.0,0.0
1997,1,1,21,34,?9?9?9?9E0?9?9?9*9*9?9?9?9?9?9?9*9?9*9*9?9*9,30.68,23.49,64.2,0,0,0,0,0,0.5,0,0,9999,9999,9,999999999,0,0.0,0,0,0.0,0.0
1997,1,1,21,35,?9?9?9?9E0?9?9?9*9*9?9?9?9?9?9?9*9?9*9*9?9*9,30.68,23.49,64.2,0,0,0,0,0,0.5,0,0,9999,9999,9,999999999,0,0.0,0,0,0.0,0.0
1997,1,1,21,36,?9?9?9?9E0?9?9?9*9*9?9?9?9?9?9?9*9?9*9*9?9*9,30.68,23.49,64.2,0,0,0,0,0,0.5,0,0,9999,9999,9,999999999,0,0.0,0,0,0.0,0.0
1997,1,1,21,37,?9?9?9?9E0?9?9?9*9*9?9?9?9?9?9?9*9?9*9*9?9*9,30.68,23.49,64.2,0,0,0,0,0,0.5,0,0,9999,9999,9,999999999,0,0.0,0,0,0.0,0.0
1997,1,1,21,38,?9?9?9?9E0?9?9?9*9*9?9?9?9?9?9?9*9?9*9*9?9*9,30.68,23.49,64.2,0,0,0,0,0,0.5,0,0,9999,9999,9,999999999,0,0.0,0,0,0.0,0.0
1997,1,1,21,39,?9?9?9?9E0?9?9?9*9*9?9?9?9?9?9?9*9?9*9*9?9*9,30.68,23.49,64.2,0,0,0,0,0,0.5,0,0,9999,9999,9,999999999,0,0.0,0,0,0.0,0.0
1997,1,1,21,40,?9?9?9?9E0?9?9?9*9*9?9?9?9?9?9?9*9?9*9*9?9*9,30.68,23.49,64.2,0,0,0,0,0,0.5,0,0,9999,9999,9,999999999,0,0.0,0,0,0.0,0.0
1997,1,1,21,41,?9?9?9?9E0?9?9?9*9*9?9?9?9?9?9?9*9?9*9*9?9*9,30.68,23.49,64.2,0,0,0,0,0,0.5,0,0,9999,9999,9,999999999,0,0.0,0,0,0.0,0.0
1997,1,1,21,42,?9?9?9?9E0?9?9?9*9*9?9?9?9?9?9?9*9?9*9*9?9*9,30.68,23.49,64.2,0,0,0,0,0,0.5,0,0,9999,9999,9,999999999,0,0.0,0,0,0.0,0.0
1997,1,1,21,43,?9?9?9?9E0?9?9?9*9*9?9?9?9?9?9?9*9?9*9*9?9*9,30.68,23.49,64.2,0,0,0,0,0,0.5,0,0,9999,9999,9,999999999,0,0.0,0,0,0.0,0.0
1997,1,1,21,44,?9?9?9?9E0?9?9?9*9*9?9?9?9?9?9?9*9?9*9*9?9*9,30.68,23.49,64.2,0,0,0,0,0,0.5,0,0,9999,9999,9,999999999,0,0.0,0,0,0.0,0.0
1997,1,1,21,45,?9?9?9?9E0?9?9?9*9*9?9?9?9?9?9?9*9?9*9*9?9*9,30.68,23.49,64.2,0,0,0,0,0,0.5,0,0,9999,9999,9,999999999,0,0.0,0,0,0.0,0.0
1997,1,1,21,46,?9?9?9?9E0?9?9?9*9*9?9?9?9?9?9?9*9?9*9*9?9*9,30.68,23.49,64.2,0,0,0,0,0,0.5,0,0,9999,9999,9,999999999,0,0.0,0,0,0.0,0.0
1997,1,1,21,47,?9?9?9?9E0?9?9?9*9*9?9?9?9?9?9?9*9?9*9*9?9*9,30.68,23.49,64.2,0,0,0,0,0,0.5,0,0,9999,9999,9,999999999,0,0.0,0,0,0.0,0.0
1997,1,1,21,48,?9?9?9?9E0?9?9?9*9*9?9?9?9?9?9?9*9?9*9*9?9*9,30.68,23.49,64.2,0,0,0,0,0,0.5,0,0,9999,9999,9,999999999,0,0.0,0,0,0.0,0.0
1997,1,1,21,49,?9?9?9?9E0?9?9?9*9*9?9?9?9?9?9?9*9?9*9*9?9*9,30.68,23.49,64.2,0,0,0,0,0,0.5,0,0,9999,9999,9,999999999,0,0.0,0,0,0.0,0.0
1997,1,1,21,50,?9?9?9?9E0?9?9?9*9*9?9?9?9?9?9?9*9?9*9*9?9*9,30.68,23.49,64.2,0,0,0,0,0,0.5,0,0,9999,9999,9,999999999,0,0.0,0,0,0.0,0.0
1997,1,1,21,51,?9?9?9?9E0?9?9?9*9*9?9?9?9?9?9?9*9?9*9*9?9*9,30.68,23.49,64.2,0,0,0,0,0,0.5,0,0,9999,9999,9,999999999,0,0.0,0,0,0.0,0.0
1997,1,1,21,52,?9?9?9?9E0?9?9?9*9*9?9?9?9?9?9?9*9?9*9*9?9*9,30.68,23.49,64.2,0,0,0,0,0,0.5,0,0,9999,9999,9,999999999,0,0.0,0,0,0.0,0.0
1997,1,1,21,53,?9?9?9?9E0?9?9?9*9*9?9?9?9?9?9?9*9?9*9*9?9*9,30.68,23.49,64.2,0,0,0,0,0,0.5,0,0,9999,9999,9,999999999,0,0.0,0,0,0.0,0.0
1997,1,1,21,54,?9?9?9?9E0?9?9?9*9*9?9?9?9?9?9?9*9?9*9*9?9*9,30.68,23.49,64.2,0,0,0,0,0,0.5,0,0,9999,9999,9,999999999,0,0.0,0,0,0.0,0.0
1997,1,1,21,55,?9?9?9?9E0?9?9?9*9*9?9?9?9?9?9?9*9?9*9*9?9*9,30.68,23.49,64.2,0,0,0,0,0,0.5,0,0,9999,9999,9,999999999,0,0.0,0,0,0.0,0.0
1997,1,1,21,56,?9?9?9?9E0?9?9?9*9*9?9?9?9?9?9?9*9?9*9*9?9*9,30.68,23.49,64.2,0,0,0,0,0,0.5,0,0,9999,9999,9,999999999,0,0.0,0,0,0.0,0.0
1997,1,1,21,57,?9?9?9?9E0?9?9?9*9*9?9?9?9?9?9?9*9?9*9*9?9*9,30.68,23.49,64.2,0,0,0,0,0,0.5,0,0,9999,9999,9,999999999,0,0.0,0,0,0.0,0.0
1997,1,1,21,58,?9?9?9?9E0?9?9?9*9*9?9?9?9?9?9?9*9?9*9*9?9*9,30.68,23.49,64.2,0,0,0,0,0,0.5,0,0,9999,9999,9,999999999,0,0.0,0,0,0.0,0.0
1997,1,1,21,59,?9?9?9?9E0?9?9?9*9*9?9?9?9?9?9?9*9?9*9*9?9*9,30.68,23.49,64.2,0,0,0,0,0,0.5,0,0,9999,9999,9,999999999,0,0.0,0,0,0.0,0.0
1997,1,1,21,60,?9?9?9?9E0?9?9?9*9*9?9?9?9?9?9?9*9?9*9*9?9*9,30.68,23.49,64.2,0,0,0,0,0,0.5,0,0,9999,9999,9,999999999,0,0.0,0,0,0.0,0.0
1997,1,1,22,1,?9?9?9?9E0?9?9?9*9*9?9?9?9?9?9?9*9?9*9*9?9*9,30.68,23.49,64.2,0,0,0,0,0,0.5,0,0,9999,9999,9,999999999,0,0.0,0,0,0.0,0.0
1997,1,1,22,2,?9?9?9?9E0?9?9?9*9*9?9?9?9?9?9?9*9?9*9*9?9*9,30.68,23.49,64.2,0,0,0,0,0,0.5,0,0,9999,9999,9,999999999,0,0.0,0,0,0.0,0.0
1997,1,1,22,3,?9?9?9?9E0?9?9?9*9*9?9?9?9?9?9?9*9?9*9*9?9*9,30.68,23.49,64.2,0,0,0,0,0,0.5,0,0,9999,9999,9,999999999,0,0.0,0,0,0.0,0.0
1997,1,1,22,4,?9?9?9?9E0?9?9?9*9*9?9?9?9?9?9?9*9?9*9*9?9*9,30.68,23.49,64.2,0,0,0,0,0,0.5,0,0,9999,9999,9,999999999,0,0.0,0,0,0.0,0.0
1997,1,1,22,5,?9?9?9?9E0?9?9?9*9*9?9?9?9?9?9?9*9?9*9*9?9*9,30.68,23.49,64.2,0,0,0,0,0,0.5,0,0,9999,9999,9,999999999,0,0.0,0,0,0.0,0.0
1997,1,1,22,6,?9?9?9?9E0?9?9?9*9*9?9?9?9?9?9?9*9?9*9*9?9*9,30.68,23.49,64.2,0,0,0,0,0,0.5,0,0,9999,9999,9,999999999,0,0.0,0,0,0.0,0.0
1997,1,1,22,7,?9?9?9?9E0?9?9?9*9*9?9?9?9?9?9?9*9?9*9*9?9*9,30.68,23.49,64.2,0,0,0,0,0,0.5,0,0,9999,9999,9,999999999,0,0.0,0,0,0.0,0.0
1997,1,1,22,8,?9?9?9?9E0?9?9?9*9*9?9?9?9?9?9?9*9?9*9*9?9*9,30.68,23.49,64.2,0,0,0,0,0,0.5,0,0,9999,9999,9,999999999,0,0.0,0,0,0.0,0.0
1997,1,1,22,9,?9?9?9?9E0?9?9?9*9*9?9?9?9?9?9?9*9?9*9*9?9*9,30.68,23.49,64.2,0,0,0,0,0,0.5,0,0,9999,9999,9,999999999,0,0.0,0,0,0.0,0.0
1997,1,1,22,10,?9?9?9?9E0?9?9?9*9*9?9?9?9?9?9?9*9?9*9*9?9*9,30.68,23.49,64.2,0,0,0,0,0,0.5,0,0,9999,9999,9,999999999,0,0.0,0,0,0.0,0.0
1997,1,1,22,11,?9?9?9?9E0?9?9?9*9*9?9?9?9?9?9?9*9?9*9*9?9*9,30.68,23.49,64.2,0,0,0,0,0,0.5,0,0,9999,9999,9,999999999,0,0.0,0,0,0.0,0.0
1997,1,1,22,12,?9?9?9?9E0?9?9?9*9*9?9?9?9?9?9?9*9?9*9*9?9*9,30.68,23.49,64.2,0,0,0,0,0,0.5,0,0,9999,9999,9,999999999,0,0.0,0,0,0.0,0.0
1997,1,1,22,13,?9?9?9?9E0?9?9?9*9*9?9?9?9?9?9?9*9?9*9*9?9*9,30.68,23.49,64.2,0,0,0,0,0,0.5,0,0,9999,9999,9,999999999,0,0.0,0,0,0.0,0.0
1997,1,1,22,14,?9?9?9?9E0?9?9?9*9*9?9?9?9?9?9?9*9?9*9*9?9*9,30.68,23.49,64.2,0,0,0,0,0,0.5,0,0,9999,9999,9,999999999,0,0.0,0,0,0.0,0.0
1997,1,1,22,15,?9?9?9?9E0?9?9?9*9*9?9?9?9?9?9?9*9?9*9*9?9*9,30.68,23.49,64.2,0,0,0,0,0,0.5,0,0,9999,9999,9,999999999,0,0.0,0,0,0.0,0.0
1997,1,1,22,16,?9?9?9?9E0?9?9?9*9*9?9?9?9?9?9?9*9?9*9*9?9*9,30.68,23.49,64.2,0,0,0,0,0,0.5,0,0,9999,9999,9,999999999,0,0.0,0,0,0.0,0.0
1997,1,1,22,17,?9?9?9?9E0?9?9?9*9*9?9?9?9?9?9?9*9?9*9*9?9*9,30.68,23.49,64.2,0,0,0,0,0,0.5,0,0,9999,9999,9,999999999,0,0.0,0,0,0.0,0.0
1997,1,1,22,18,?9?9?9?9E0?9?9?9*9*9?9?9?9?9?9?9*9?9*9*9?9*9,30.68,23.49,64.2,0,0,0,0,0,0.5,0,0,9999,9999,9,999999999,0,0.0,0,0,0.0,0.0
1997,1,1,22,19,?9?9?9?9E0?9?9?9*9*9?9?9?9?9?9?9*9?9*9*9?9*9,30.68,23.49,64.2,0,0,0,0,0,0.5,0,0,9999,9999,9,999999999,0,0.0,0,0,0.0,0.0
1997,1,1,22,20,?9?9?9?9E0?9?9?9*9*9?9?9?9?9?9?9*9?9*9*9?9*9,30.68,23.49,64.2,0,0,0,0,0,0.5,0,0,9999,9999,9,999999999,0,0.0,0,0,0.0,0.0
1997,1,1,22,21,?9?9?9?9E0?9?9?9*9*9?9?9?9?9?9?9*9?9*9*9?9*9,30.68,23.49,64.2,0,0,0,0,0,0.5,0,0,9999,9999,9,999999999,0,0.0,0,0,0.0,0.0
1997,1,1,22,22,?9?9?9?9E0?9?9?9*9*9?9?9?9?9?9?9*9?9*9*9?9*9,30.68,23.49,64.2,0,0,0,0,0,0.5,0,0,9999,9999,9,999999999,0,0.0,0,0,0.0,0.0
1997,1,1,22,23,?9?9?9?9E0?9?9?9*9*9?9?9?9?9?9?9*9?9*9*9?9*9,30.68,23.49,64.2,0,0,0,0,0,0.5,0,0,9999,9999,9,999999999,0,0.0,0,0,0.0,0.0
1997,1,1,22,24,?9?9?9?9E0?9?9?9*9*9?9?9?9?9?9?9*9?9*9*9?9*9,30.68,23.49,64.2,0,0,0,0,0,0.5,0,0,9999,9999,9,999999999,0,0.0,0,0,0.0,0.0
1997,1,1,22,25,?9?9?9?9E0?9?9?9*9*9?9?9?9?9?9?9*9?9*9*9?9*9,30.68,23.49,64.2,0,0,0,0,0,0.5,0,0,9999,9999,9,999999999,0,0.0,0,0,0.0,0.0
1997,1,1,22,26,?9?9?9?9E0?9?9?9*9*9?9?9?9?9?9?9*9?9*9*9?9*9,30.68,23.49,64.2,0,0,0,0,0,0.5,0,0,9999,9999,9,999999999,0,0.0,0,0,0.0,0.0
1997,1,1,22,27,?9?9?9?9E0?9?9?9*9*9?9?9?9?9?9?9*9?9*9*9?9*9,30.68,23.49,64.2,0,0,0,0,0,0.5,0,0,9999,9999,9,999999999,0,0.0,0,0,0.0,0.0
1997,1,1,22,28,?9?9?9?9E0?9?9?9*9*9?9?9?9?9?9?9*9?9*9*9?9*9,30.68,23.49,64.2,0,0,0,0,0,0.5,0,0,9999,9999,9,999999999,0,0.0,0,0,0.0,0.0
1997,1,1,22,29,?9?9?9?9E0?9?9?9*9*9?9?9?9?9?9?9*9?9*9*9?9*9,30.68,23.49,64.2,0,0,0,0,0,0.5,0,0,9999,9999,9,999999999,0,0.0,0,0,0.0,0.0
1997,1,1,22,30,?9?9?9?9E0?9?9?9*9*9?9?9?9?9?9?9*9?9*9*9?9*9,30.68,23.49,64.2,0,0,0,0,0,0.5,0,0,9999,9999,9,999999999,0,0.0,0,0,0.0,0.0
1997,1,1,22,31,?9?9?9?9E0?9?9?9*9*9?9?9?9?9?9?9*9?9*9*9?9*9,30.68,23.49,64.2,0,0,0,0,0,0.5,0,0,9999,9999,9,999999999,0,0.0,0,0,0.0,0.0
1997,1,1,22,32,?9?9?9?9E0?9?9?9*9*9?9?9?9?9?9?9*9?9*9*9?9*9,30.68,23.49,64.2,0,0,0,0,0,0.5,0,0,9999,9999,9,999999999,0,0.0,0,0,0.0,0.0
1997,1,1,22,33,?9?9?9?9E0?9?9?9*9*9?9?9?9?9?9?9*9?9*9*9?9*9,30.68,23.49,64.2,0,0,0,0,0,0.5,0,0,9999,9999,9,999999999,0,0.0,0,0,0.0,0.0
1997,1,1,22,34,?9?9?9?9E0?9?9?9*9*9?9?9?9?9?9?9*9?9*9*9?9*9,30.68,23.49,64.2,0,0,0,0,0,0.5,0,0,9999,9999,9,999999999,0,0.0,0,0,0.0,0.0
1997,1,1,22,35,?9?9?9?9E0?9?9?9*9*9?9?9?9?9?9?9*9?9*9*9?9*9,30.68,23.49,64.2,0,0,0,0,0,0.5,0,0,9999,9999,9,999999999,0,0.0,0,0,0.0,0.0
1997,1,1,22,36,?9?9?9?9E0?9?9?9*9*9?9?9?9?9?9?9*9?9*9*9?9*9,30.68,23.49,64.2,0,0,0,0,0,0.5,0,0,9999,9999,9,999999999,0,0.0,0,0,0.0,0.0
1997,1,1,22,37,?9?9?9?9E0?9?9?9*9*9?9?9?9?9?9?9*9?9*9*9?9*9,30.68,23.49,64.2,0,0,0,0,0,0.5,0,0,9999,9999,9,999999999,0,0.0,0,0,0.0,0.0
1997,1,1,22,38,?9?9?9?9E0?9?9?9*9*9?9?9?9?9?9?9*9?9*9*9?9*9,30.68,23.49,64.2,0,0,0,0,0,0.5,0,0,9999,9999,9,999999999,0,0.0,0,0,0.0,0.0
1997,1,1,22,39,?9?9?9?9E0?9?9?9*9*9?9?9?9?9?9?9*9?9*9*9?9*9,30.68,23.49,64.2,0,0,0,0,0,0.5,0,0,9999,9999,9,999999999,0,0.0,0,0,0.0,0.0
1997,1,1,22,40,?9?9?9?9E0?9?9?9*9*9?9?9?9?9?9?9*9?9*9*9?9*9,30.68,23.49,64.2,0,0,0,0,0,0.5,0,0,9999,9999,9,999999999,0,0.0,0,0,0.0,0.0
1997,1,1,22,41,?9?9?9?9E0?9?9?9*9*9?9?9?9?9?9?9*9?9*9*9?9*9,30.68,23.49,64.2,0,0,0,0,0,0.5,0,0,9999,9999,9,999999999,0,0.0,0,0,0.0,0.0
1997,1,1,22,42,?9?9?9?9E0?9?9?9*9*9?9?9?9?9?9?9*9?9*9*9?9*9,30.68,23.49,64.2,0,0,0,0,0,0.5,0,0,9999,9999,9,999999999,0,0.0,0,0,0.0,0.0
1997,1,1,22,43,?9?9?9?9E0?9?9?9*9*9?9?9?9?9?9?9*9?9*9*9?9*9,30.68,23.49,64.2,0,0,0,0,0,0.5,0,0,9999,9999,9,999999999,0,0.0,0,0,0.0,0.0
1997,1,1,22,44,?9?9?9?9E0?9?9?9*9*9?9?9?9?9?9?9*9?9*9*9?9*9,30.68,23.49,64.2,0,0,0,0,0,0.5,0,0,9999,9999,9,999999999,0,0.0,0,0,0.0,0.0
1997,1,1,22,45,?9?9?9?9E0?9?9?9*9*9?9?9?9?9?9?9*9?9*9*9?9*9,30.68,23.49,64.2,0,0,0,0,0,0.5,0,0,9999,9999,9,999999999,0,0.0,0,0,0.0,0.0
1997,1,1,22,46,?9?9?9?9E0?9?9?9*9*9?9?9?9?9?9?9*9?9*9*9?9*9,30.68,23.49,64.2,0,0,0,0,0,0.5,0,0,9999,9999,9,999999999,0,0.0,0,0,0.0,0.0
1997,1,1,22,47,?9?9?9?9E0?9?9?9*9*9?9?9?9?9?9?9*9?9*9*9?9*9,30.68,23.49,64.2,0,0,0,0,0,0.5,0,0,9999,9999,9,999999999,0,0.0,0,0,0.0,0.0
1997,1,1,22,48,?9?9?9?9E0?9?9?9*9*9?9?9?9?9?9?9*9?9*9*9?9*9,30.68,23.49,64.2,0,0,0,0,0,0.5,0,0,9999,9999,9,999999999,0,0.0,0,0,0.0,0.0
1997,1,1,22,49,?9?9?9?9E0?9?9?9*9*9?9?9?9?9?9?9*9?9*9*9?9*9,30.68,23.49,64.2,0,0,0,0,0,0.5,0,0,9999,9999,9,999999999,0,0.0,0,0,0.0,0.0
1997,1,1,22,50,?9?9?9?9E0?9?9?9*9*9?9?9?9?9?9?9*9?9*9*9?9*9,30.68,23.49,64.2,0,0,0,0,0,0.5,0,0,9999,9999,9,999999999,0,0.0,0,0,0.0,0.0
1997,1,1,22,51,?9?9?9?9E0?9?9?9*9*9?9?9?9?9?9?9*9?9*9*9?9*9,30.68,23.49,64.2,0,0,0,0,0,0.5,0,0,9999,9999,9,999999999,0,0.0,0,0,0.0,0.0
1997,1,1,22,52,?9?9?9?9E0?9?9?9*9*9?9?9?9?9?9?9*9?9*9*9?9*9,30.68,23.49,64.2,0,0,0,0,0,0.5,0,0,9999,9999,9,999999999,0,0.0,0,0,0.0,0.0
1997,1,1,22,53,?9?9?9?9E0?9?9?9*9*9?9?9?9?9?9?9*9?9*9*9?9*9,30.68,23.49,64.2,0,0,0,0,0,0.5,0,0,9999,9999,9,999999999,0,0.0,0,0,0.0,0.0
1997,1,1,22,54,?9?9?9?9E0?9?9?9*9*9?9?9?9?9?9?9*9?9*9*9?9*9,30.68,23.49,64.2,0,0,0,0,0,0.5,0,0,9999,9999,9,999999999,0,0.0,0,0,0.0,0.0
1997,1,1,22,55,?9?9?9?9E0?9?9?9*9*9?9?9?9?9?9?9*9?9*9*9?9*9,30.68,23.49,64.2,0,0,0,0,0,0.5,0,0,9999,9999,9,999999999,0,0.0,0,0,0.0,0.0
1997,1,1,22,56,?9?9?9?9E0?9?9?9*9*9?9?9?9?9?9?9*9?9*9*9?9*9,30.68,23.49,64.2,0,0,0,0,0,0.5,0,0,9999,9999,9,999999999,0,0.0,0,0,0.0,0.0
1997,1,1,22,57,?9?9?9?9E0?9?9?9*9*9?9?9?9?9?9?9*9?9*9*9?9*9,30.68,23.49,64.2,0,0,0,0,0,0.5,0,0,9999,9999,9,999999999,0,0.0,0,0,0.0,0.0
1997,1,1,22,58,?9?9?9?9E0?9?9?9*9*9?9?9?9?9?9?9*9?9*9*9?9*9,30.68,23.49,64.2,0,0,0,0,0,0.5,0,0,9999,9999,9,999999999,0,0.0,0,0,0.0,0.0
1997,1,1,22,59,?9?9?9?9E0?9?9?9*9*9?9?9?9?9?9?9*9?9*9*9?9*9,30.68,23.49,64.2,0,0,0,0,0,0.5,0,0,9999,9999,9,999999999,0,0.0,0,0,0.0,0.0
1997,1,1,22,60,?9?9?9?9E0?9?9?9*9*9?9?9?9?9?9?9*9?9*9*9?9*9,30.68,23.49,64.2,0,0,0,0,0,0.5,0,0,9999,9999,9,999999999,0,0.0,0,0,0.0,0.0
1997,1,1,23,1,?9?9?9?9E0?9?9?9*9*9?9?9?9?9?9?9*9?9*9*9?9*9,30.68,23.49,64.2,0,0,0,0,0,0.5,0,0,9999,9999,9,999999999,0,0.0,0,0,0.0,0.0
1997,1,1,23,2,?9?9?9?9E0?9?9?9*9*9?9?9?9?9?9?9*9?9*9*9?9*9,30.68,23.49,64.2,0,0,0,0,0,0.5,0,0,9999,9999,9,999999999,0,0.0,0,0,0.0,0.0
1997,1,1,23,3,?9?9?9?9E0?9?9?9*9*9?9?9?9?9?9?9*9?9*9*9?9*9,30.68,23.49,64.2,0,0,0,0,0,0.5,0,0,9999,9999,9,999999999,0,0.0,0,0,0.0,0.0
1997,1,1,23,4,?9?9?9?9E0?9?9?9*9*9?9?9?9?9?9?9*9?9*9*9?9*9,30.68,23.49,64.2,0,0,0,0,0,0.5,0,0,9999,9999,9,999999999,0,0.0,0,0,0.0,0.0
1997,1,1,23,5,?9?9?9?9E0?9?9?9*9*9?9?9?9?9?9?9*9?9*9*9?9*9,30.68,23.49,64.2,0,0,0,0,0,0.5,0,0,9999,9999,9,999999999,0,0.0,0,0,0.0,0.0
1997,1,1,23,6,?9?9?9?9E0?9?9?9*9*9?9?9?9?9?9?9*9?9*9*9?9*9,30.68,23.49,64.2,0,0,0,0,0,0.5,0,0,9999,9999,9,999999999,0,0.0,0,0,0.0,0.0
1997,1,1,23,7,?9?9?9?9E0?9?9?9*9*9?9?9?9?9?9?9*9?9*9*9?9*9,30.68,23.49,64.2,0,0,0,0,0,0.5,0,0,9999,9999,9,999999999,0,0.0,0,0,0.0,0.0
1997,1,1,23,8,?9?9?9?9E0?9?9?9*9*9?9?9?9?9?9?9*9?9*9*9?9*9,30.68,23.49,64.2,0,0,0,0,0,0.5,0,0,9999,9999,9,999999999,0,0.0,0,0,0.0,0.0
1997,1,1,23,9,?9?9?9?9E0?9?9?9*9*9?9?9?9?9?9?9*9?9*9*9?9*9,30.68,23.49,64.2,0,0,0,0,0,0.5,0,0,9999,9999,9,999999999,0,0.0,0,0,0.0,0.0
1997,1,1,23,10,?9?9?9?9E0?9?9?9*9*9?9?9?9?9?9?9*9?9*9*9?9*9,30.68,23.49,64.2,0,0,0,0,0,0.5,0,0,9999,9999,9,999999999,0,0.0,0,0,0.0,0.0
1997,1,1,23,11,?9?9?9?9E0?9?9?9*9*9?9?9?9?9?9?9*9?9*9*9?9*9,30.68,23.49,64.2,0,0,0,0,0,0.5,0,0,9999,9999,9,999999999,0,0.0,0,0,0.0,0.0
1997,1,1,23,12,?9?9?9?9E0?9?9?9*9*9?9?9?9?9?9?9*9?9*9*9?9*9,30.68,23.49,64.2,0,0,0,0,0,0.5,0,0,9999,9999,9,999999999,0,0.0,0,0,0.0,0.0
1997,1,1,23,13,?9?9?9?9E0?9?9?9*9*9?9?9?9?9?9?9*9?9*9*9?9*9,30.68,23.49,64.2,0,0,0,0,0,0.5,0,0,9999,9999,9,999999999,0,0.0,0,0,0.0,0.0
1997,1,1,23,14,?9?9?9?9E0?9?9?9*9*9?9?9?9?9?9?9*9?9*9*9?9*9,30.68,23.49,64.2,0,0,0,0,0,0.5,0,0,9999,9999,9,999999999,0,0.0,0,0,0.0,0.0
1997,1,1,23,15,?9?9?9?9E0?9?9?9*9*9?9?9?9?9?9?9*9?9*9*9?9*9,30.68,23.49,64.2,0,0,0,0,0,0.5,0,0,9999,9999,9,999999999,0,0.0,0,0,0.0,0.0
1997,1,1,23,16,?9?9?9?9E0?9?9?9*9*9?9?9?9?9?9?9*9?9*9*9?9*9,30.68,23.49,64.2,0,0,0,0,0,0.5,0,0,9999,9999,9,999999999,0,0.0,0,0,0.0,0.0
1997,1,1,23,17,?9?9?9?9E0?9?9?9*9*9?9?9?9?9?9?9*9?9*9*9?9*9,30.68,23.49,64.2,0,0,0,0,0,0.5,0,0,9999,9999,9,999999999,0,0.0,0,0,0.0,0.0
1997,1,1,23,18,?9?9?9?9E0?9?9?9*9*9?9?9?9?9?9?9*9?9*9*9?9*9,30.68,23.49,64.2,0,0,0,0,0,0.5,0,0,9999,9999,9,999999999,0,0.0,0,0,0.0,0.0
1997,1,1,23,19,?9?9?9?9E0?9?9?9*9*9?9?9?9?9?9?9*9?9*9*9?9*9,30.68,23.49,64.2,0,0,0,0,0,0.5,0,0,9999,9999,9,999999999,0,0.0,0,0,0.0,0.0
1997,1,1,23,20,?9?9?9?9E0?9?9?9*9*9?9?9?9?9?9?9*9?9*9*9?9*9,30.68,23.49,64.2,0,0,0,0,0,0.5,0,0,9999,9999,9,999999999,0,0.0,0,0,0.0,0.0
1997,1,1,23,21,?9?9?9?9E0?9?9?9*9*9?9?9?9?9?9?9*9?9*9*9?9*9,30.68,23.49,64.2,0,0,0,0,0,0.5,0,0,9999,9999,9,999999999,0,0.0,0,0,0.0,0.0
1997,1,1,23,22,?9?9?9?9E0?9?9?9*9*9?9?9?9?9?9?9*9?9*9*9?9*9,30.68,23.49,64.2,0,0,0,0,0,0.5,0,0,9999,9999,9,999999999,0,0.0,0,0,0.0,0.0
1997,1,1,23,23,?9?9?9?9E0?9?9?9*9*9?9?9?9?9?9?9*9?9*9*9?9*9,30.68,23.49,64.2,0,0,0,0,0,0.5,0,0,9999,9999,9,999999999,0,0.0,0,0,0.0,0.0
1997,1,1,23,24,?9?9?9?9E0?9?9?9*9*9?9?9?9?9?9?9*9?9*9*9?9*9,30.68,23.49,64.2,0,0,0,0,0,0.5,0,0,9999,9999,9,999999999,0,0.0,0,0,0.0,0.0
1997,1,1,23,25,?9?9?9?9E0?9?9?9*9*9?9?9?9?9?9?9*9?9*9*9?9*9,30.68,23.49,64.2,0,0,0,0,0,0.5,0,0,9999,9999,9,999999999,0,0.0,0,0,0.0,0.0
1997,1,1,23,26,?9?9?9?9E0?9?9?9*9*9?9?9?9?9?9?9*9?9*9*9?9*9,30.68,23.49,64.2,0,0,0,0,0,0.5,0,0,9999,9999,9,999999999,0,0.0,0,0,0.0,0.0
1997,1,1,23,27,?9?9?9?9E0?9?9?9*9*9?9?9?9?9?9?9*9?9*9*9?9*9,30.68,23.49,64.2,0,0,0,0,0,0.5,0,0,9999,9999,9,999999999,0,0.0,0,0,0.0,0.0
1997,1,1,23,28,?9?9?9?9E0?9?9?9*9*9?9?9?9?9?9?9*9?9*9*9?9*9,30.68,23.49,64.2,0,0,0,0,0,0.5,0,0,9999,9999,9,999999999,0,0.0,0,0,0.0,0.0
1997,1,1,23,29,?9?9?9?9E0?9?9?9*9*9?9?9?9?9?9?9*9?9*9*9?9*9,30.68,23.49,64.2,0,0,0,0,0,0.5,0,0,9999,9999,9,999999999,0,0.0,0,0,0.0,0.0
1997,1,1,23,30,?9?9?9?9E0?9?9?9*9*9?9?9?9?9?9?9*9?9*9*9?9*9,30.68,23.49,64.2,0,0,0,0,0,0.5,0,0,9999,9999,9,999999999,0,0.0,0,0,0.0,0.0
1997,1,1,23,31,?9?9?9?9E0?9?9?9*9*9?9?9?9?9?9?9*9?9*9*9?9*9,30.68,23.49,64.2,0,0,0,0,0,0.5,0,0,9999,9999,9,999999999,0,0.0,0,0,0.0,0.0
1997,1,1,23,32,?9?9?9?9E0?9?9?9*9*9?9?9?9?9?9?9*9?9*9*9?9*9,30.68,23.49,64.2,0,0,0,0,0,0.5,0,0,9999,9999,9,999999999,0,0.0,0,0,0.0,0.0
1997,1,1,23,33,?9?9?9?9E0?9?9?9*9*9?9?9?9?9?9?9*9?9*9*9?9*9,30.68,23.49,64.2,0,0,0,0,0,0.5,0,0,9999,9999,9,999999999,0,0.0,0,0,0.0,0.0
1997,1,1,23,34,?9?9?9?9E0?9?9?9*9*9?9?9?9?9?9?9*9?9*9*9?9*9,30.68,23.49,64.2,0,0,0,0,0,0.5,0,0,9999,9999,9,999999999,0,0.0,0,0,0.0,0.0
1997,1,1,23,35,?9?9?9?9E0?9?9?9*9*9?9?9?9?9?9?9*9?9*9*9?9*9,30.68,23.49,64.2,0,0,0,0,0,0.5,0,0,9999,9999,9,999999999,0,0.0,0,0,0.0,0.0
1997,1,1,23,36,?9?9?9?9E0?9?9?9*9*9?9?9?9?9?9?9*9?9*9*9?9*9,30.68,23.49,64.2,0,0,0,0,0,0.5,0,0,9999,9999,9,999999999,0,0.0,0,0,0.0,0.0
1997,1,1,23,37,?9?9?9?9E0?9?9?9*9*9?9?9?9?9?9?9*9?9*9*9?9*9,30.68,23.49,64.2,0,0,0,0,0,0.5,0,0,9999,9999,9,999999999,0,0.0,0,0,0.0,0.0
1997,1,1,23,38,?9?9?9?9E0?9?9?9*9*9?9?9?9?9?9?9*9?9*9*9?9*9,30.68,23.49,64.2,0,0,0,0,0,0.5,0,0,9999,9999,9,999999999,0,0.0,0,0,0.0,0.0
1997,1,1,23,39,?9?9?9?9E0?9?9?9*9*9?9?9?9?9?9?9*9?9*9*9?9*9,30.68,23.49,64.2,0,0,0,0,0,0.5,0,0,9999,9999,9,999999999,0,0.0,0,0,0.0,0.0
1997,1,1,23,40,?9?9?9?9E0?9?9?9*9*9?9?9?9?9?9?9*9?9*9*9?9*9,30.68,23.49,64.2,0,0,0,0,0,0.5,0,0,9999,9999,9,999999999,0,0.0,0,0,0.0,0.0
1997,1,1,23,41,?9?9?9?9E0?9?9?9*9*9?9?9?9?9?9?9*9?9*9*9?9*9,30.68,23.49,64.2,0,0,0,0,0,0.5,0,0,9999,9999,9,999999999,0,0.0,0,0,0.0,0.0
1997,1,1,23,42,?9?9?9?9E0?9?9?9*9*9?9?9?9?9?9?9*9?9*9*9?9*9,30.68,23.49,64.2,0,0,0,0,0,0.5,0,0,9999,9999,9,999999999,0,0.0,0,0,0.0,0.0
1997,1,1,23,43,?9?9?9?9E0?9?9?9*9*9?9?9?9?9?9?9*9?9*9*9?9*9,30.68,23.49,64.2,0,0,0,0,0,0.5,0,0,9999,9999,9,999999999,0,0.0,0,0,0.0,0.0
1997,1,1,23,44,?9?9?9?9E0?9?9?9*9*9?9?9?9?9?9?9*9?9*9*9?9*9,30.68,23.49,64.2,0,0,0,0,0,0.5,0,0,9999,9999,9,999999999,0,0.0,0,0,0.0,0.0
1997,1,1,23,45,?9?9?9?9E0?9?9?9*9*9?9?9?9?9?9?9*9?9*9*9?9*9,30.68,23.49,64.2,0,0,0,0,0,0.5,0,0,9999,9999,9,999999999,0,0.0,0,0,0.0,0.0
1997,1,1,23,46,?9?9?9?9E0?9?9?9*9*9?9?9?9?9?9?9*9?9*9*9?9*9,30.68,23.49,64.2,0,0,0,0,0,0.5,0,0,9999,9999,9,999999999,0,0.0,0,0,0.0,0.0
1997,1,1,23,47,?9?9?9?9E0?9?9?9*9*9?9?9?9?9?9?9*9?9*9*9?9*9,30.68,23.49,64.2,0,0,0,0,0,0.5,0,0,9999,9999,9,999999999,0,0.0,0,0,0.0,0.0
1997,1,1,23,48,?9?9?9?9E0?9?9?9*9*9?9?9?9?9?9?9*9?9*9*9?9*9,30.68,23.49,64.2,0,0,0,0,0,0.5,0,0,9999,9999,9,999999999,0,0.0,0,0,0.0,0.0
1997,1,1,23,49,?9?9?9?9E0?9?9?9*9*9?9?9?9?9?9?9*9?9*9*9?9*9,30.68,23.49,64.2,0,0,0,0,0,0.5,0,0,9999,9999,9,999999999,0,0.0,0,0,0.0,0.0
1997,1,1,23,50,?9?9?9?9E0?9?9?9*9*9?9?9?9?9?9?9*9?9*9*9?9*9,30.68,23.49,64.2,0,0,0,0,0,0.5,0,0,9999,9999,9,999999999,0,0.0,0,0,0.0,0.0
1997,1,1,23,51,?9?9?9?9E0?9?9?9*9*9?9?9?9?9?9?9*9?9*9*9?9*9,30.68,23.49,64.2,0,0,0,0,0,0.5,0,0,9999,9999,9,999999999,0,0.0,0,0,0.0,0.0
1997,1,1,23,52,?9?9?9?9E0?9?9?9*9*9?9?9?9?9?9?9*9?9*9*9?9*9,30.68,23.49,64.2,0,0,0,0,0,0.5,0,0,9999,9999,9,999999999,0,0.0,0,0,0.0,0.0
1997,1,1,23,53,?9?9?9?9E0?9?9?9*9*9?9?9?9?9?9?9*9?9*9*9?9*9,30.68,23.49,64.2,0,0,0,0,0,0.5,0,0,9999,9999,9,999999999,0,0.0,0,0,0.0,0.0
1997,1,1,23,54,?9?9?9?9E0?9?9?9*9*9?9?9?9?9?9?9*9?9*9*9?9*9,30.68,23.49,64.2,0,0,0,0,0,0.5,0,0,9999,9999,9,999999999,0,0.0,0,0,0.0,0.0
1997,1,1,23,55,?9?9?9?9E0?9?9?9*9*9?9?9?9?9?9?9*9?9*9*9?9*9,30.68,23.49,64.2,0,0,0,0,0,0.5,0,0,9999,9999,9,999999999,0,0.0,0,0,0.0,0.0
1997,1,1,23,56,?9?9?9?9E0?9?9?9*9*9?9?9?9?9?9?9*9?9*9*9?9*9,30.68,23.49,64.2,0,0,0,0,0,0.5,0,0,9999,9999,9,999999999,0,0.0,0,0,0.0,0.0
1997,1,1,23,57,?9?9?9?9E0?9?9?9*9*9?9?9?9?9?9?9*9?9*9*9?9*9,30.68,23.49,64.2,0,0,0,0,0,0.5,0,0,9999,9999,9,999999999,0,0.0,0,0,0.0,0.0
1997,1,1,23,58,?9?9?9?9E0?9?9?9*9*9?9?9?9?9?9?9*9?9*9*9?9*9,30.68,23.49,64.2,0,0,0,0,0,0.5,0,0,9999,9999,9,999999999,0,0.0,0,0,0.0,0.0
1997,1,1,23,59,?9?9?9?9E0?9?9?9*9*9?9?9?9?9?9?9*9?9*9*9?9*9,30.68,23.49,64.2,0,0,0,0,0,0.5,0,0,9999,9999,9,999999999,0,0.0,0,0,0.0,0.0
1997,1,1,23,60,?9?9?9?9E0?9?9?9*9*9?9?9?9?9?9?9*9?9*9*9?9*9,30.68,23.49,64.2,0,0,0,0,0,0.5,0,0,9999,9999,9,999999999,0,0.0,0,0,0.0,0.0
1997,1,1,24,1,?9?9?9?9E0?9?9?9*9*9?9?9?9?9?9?9*9?9*9*9?9*9,30.68,23.49,64.2,0,0,0,0,0,0.5,0,0,9999,9999,9,999999999,0,0.0,0,0,0.0,0.0
1997,1,1,24,2,?9?9?9?9E0?9?9?9*9*9?9?9?9?9?9?9*9?9*9*9?9*9,30.68,23.49,64.2,0,0,0,0,0,0.5,0,0,9999,9999,9,999999999,0,0.0,0,0,0.0,0.0
1997,1,1,24,3,?9?9?9?9E0?9?9?9*9*9?9?9?9?9?9?9*9?9*9*9?9*9,30.68,23.49,64.2,0,0,0,0,0,0.5,0,0,9999,9999,9,999999999,0,0.0,0,0,0.0,0.0
1997,1,1,24,4,?9?9?9?9E0?9?9?9*9*9?9?9?9?9?9?9*9?9*9*9?9*9,30.68,23.49,64.2,0,0,0,0,0,0.5,0,0,9999,9999,9,999999999,0,0.0,0,0,0.0,0.0
1997,1,1,24,5,?9?9?9?9E0?9?9?9*9*9?9?9?9?9?9?9*9?9*9*9?9*9,30.68,23.49,64.2,0,0,0,0,0,0.5,0,0,9999,9999,9,999999999,0,0.0,0,0,0.0,0.0
1997,1,1,24,6,?9?9?9?9E0?9?9?9*9*9?9?9?9?9?9?9*9?9*9*9?9*9,30.68,23.49,64.2,0,0,0,0,0,0.5,0,0,9999,9999,9,999999999,0,0.0,0,0,0.0,0.0
1997,1,1,24,7,?9?9?9?9E0?9?9?9*9*9?9?9?9?9?9?9*9?9*9*9?9*9,30.68,23.49,64.2,0,0,0,0,0,0.5,0,0,9999,9999,9,999999999,0,0.0,0,0,0.0,0.0
1997,1,1,24,8,?9?9?9?9E0?9?9?9*9*9?9?9?9?9?9?9*9?9*9*9?9*9,30.68,23.49,64.2,0,0,0,0,0,0.5,0,0,9999,9999,9,999999999,0,0.0,0,0,0.0,0.0
1997,1,1,24,9,?9?9?9?9E0?9?9?9*9*9?9?9?9?9?9?9*9?9*9*9?9*9,30.68,23.49,64.2,0,0,0,0,0,0.5,0,0,9999,9999,9,999999999,0,0.0,0,0,0.0,0.0
1997,1,1,24,10,?9?9?9?9E0?9?9?9*9*9?9?9?9?9?9?9*9?9*9*9?9*9,30.68,23.49,64.2,0,0,0,0,0,0.5,0,0,9999,9999,9,999999999,0,0.0,0,0,0.0,0.0
1997,1,1,24,11,?9?9?9?9E0?9?9?9*9*9?9?9?9?9?9?9*9?9*9*9?9*9,30.68,23.49,64.2,0,0,0,0,0,0.5,0,0,9999,9999,9,999999999,0,0.0,0,0,0.0,0.0
1997,1,1,24,12,?9?9?9?9E0?9?9?9*9*9?9?9?9?9?9?9*9?9*9*9?9*9,30.68,23.49,64.2,0,0,0,0,0,0.5,0,0,9999,9999,9,999999999,0,0.0,0,0,0.0,0.0
1997,1,1,24,13,?9?9?9?9E0?9?9?9*9*9?9?9?9?9?9?9*9?9*9*9?9*9,30.68,23.49,64.2,0,0,0,0,0,0.5,0,0,9999,9999,9,999999999,0,0.0,0,0,0.0,0.0
1997,1,1,24,14,?9?9?9?9E0?9?9?9*9*9?9?9?9?9?9?9*9?9*9*9?9*9,30.68,23.49,64.2,0,0,0,0,0,0.5,0,0,9999,9999,9,999999999,0,0.0,0,0,0.0,0.0
1997,1,1,24,15,?9?9?9?9E0?9?9?9*9*9?9?9?9?9?9?9*9?9*9*9?9*9,30.68,23.49,64.2,0,0,0,0,0,0.5,0,0,9999,9999,9,999999999,0,0.0,0,0,0.0,0.0
1997,1,1,24,16,?9?9?9?9E0?9?9?9*9*9?9?9?9?9?9?9*9?9*9*9?9*9,30.68,23.49,64.2,0,0,0,0,0,0.5,0,0,9999,9999,9,999999999,0,0.0,0,0,0.0,0.0
1997,1,1,24,17,?9?9?9?9E0?9?9?9*9*9?9?9?9?9?9?9*9?9*9*9?9*9,30.68,23.49,64.2,0,0,0,0,0,0.5,0,0,9999,9999,9,999999999,0,0.0,0,0,0.0,0.0
1997,1,1,24,18,?9?9?9?9E0?9?9?9*9*9?9?9?9?9?9?9*9?9*9*9?9*9,30.68,23.49,64.2,0,0,0,0,0,0.5,0,0,9999,9999,9,999999999,0,0.0,0,0,0.0,0.0
1997,1,1,24,19,?9?9?9?9E0?9?9?9*9*9?9?9?9?9?9?9*9?9*9*9?9*9,30.68,23.49,64.2,0,0,0,0,0,0.5,0,0,9999,9999,9,999999999,0,0.0,0,0,0.0,0.0
1997,1,1,24,20,?9?9?9?9E0?9?9?9*9*9?9?9?9?9?9?9*9?9*9*9?9*9,30.68,23.49,64.2,0,0,0,0,0,0.5,0,0,9999,9999,9,999999999,0,0.0,0,0,0.0,0.0
1997,1,1,24,21,?9?9?9?9E0?9?9?9*9*9?9?9?9?9?9?9*9?9*9*9?9*9,30.68,23.49,64.2,0,0,0,0,0,0.5,0,0,9999,9999,9,999999999,0,0.0,0,0,0.0,0.0
1997,1,1,24,22,?9?9?9?9E0?9?9?9*9*9?9?9?9?9?9?9*9?9*9*9?9*9,30.68,23.49,64.2,0,0,0,0,0,0.5,0,0,9999,9999,9,999999999,0,0.0,0,0,0.0,0.0
1997,1,1,24,23,?9?9?9?9E0?9?9?9*9*9?9?9?9?9?9?9*9?9*9*9?9*9,30.68,23.49,64.2,0,0,0,0,0,0.5,0,0,9999,9999,9,999999999,0,0.0,0,0,0.0,0.0
1997,1,1,24,24,?9?9?9?9E0?9?9?9*9*9?9?9?9?9?9?9*9?9*9*9?9*9,30.68,23.49,64.2,0,0,0,0,0,0.5,0,0,9999,9999,9,999999999,0,0.0,0,0,0.0,0.0
1997,1,1,24,25,?9?9?9?9E0?9?9?9*9*9?9?9?9?9?9?9*9?9*9*9?9*9,30.68,23.49,64.2,0,0,0,0,0,0.5,0,0,9999,9999,9,999999999,0,0.0,0,0,0.0,0.0
1997,1,1,24,26,?9?9?9?9E0?9?9?9*9*9?9?9?9?9?9?9*9?9*9*9?9*9,30.68,23.49,64.2,0,0,0,0,0,0.5,0,0,9999,9999,9,999999999,0,0.0,0,0,0.0,0.0
1997,1,1,24,27,?9?9?9?9E0?9?9?9*9*9?9?9?9?9?9?9*9?9*9*9?9*9,30.68,23.49,64.2,0,0,0,0,0,0.5,0,0,9999,9999,9,999999999,0,0.0,0,0,0.0,0.0
1997,1,1,24,28,?9?9?9?9E0?9?9?9*9*9?9?9?9?9?9?9*9?9*9*9?9*9,30.68,23.49,64.2,0,0,0,0,0,0.5,0,0,9999,9999,9,999999999,0,0.0,0,0,0.0,0.0
1997,1,1,24,29,?9?9?9?9E0?9?9?9*9*9?9?9?9?9?9?9*9?9*9*9?9*9,30.68,23.49,64.2,0,0,0,0,0,0.5,0,0,9999,9999,9,999999999,0,0.0,0,0,0.0,0.0
1997,1,1,24,30,?9?9?9?9E0?9?9?9*9*9?9?9?9?9?9?9*9?9*9*9?9*9,30.68,23.49,64.2,0,0,0,0,0,0.5,0,0,9999,9999,9,999999999,0,0.0,0,0,0.0,0.0
1997,1,1,24,31,?9?9?9?9E0?9?9?9*9*9?9?9?9?9?9?9*9?9*9*9?9*9,30.68,23.49,64.2,0,0,0,0,0,0.5,0,0,9999,9999,9,999999999,0,0.0,0,0,0.0,0.0
1997,1,1,24,32,?9?9?9?9E0?9?9?9*9*9?9?9?9?9?9?9*9?9*9*9?9*9,30.68,23.49,64.2,0,0,0,0,0,0.5,0,0,9999,9999,9,999999999,0,0.0,0,0,0.0,0.0
1997,1,1,24,33,?9?9?9?9E0?9?9?9*9*9?9?9?9?9?9?9*9?9*9*9?9*9,30.68,23.49,64.2,0,0,0,0,0,0.5,0,0,9999,9999,9,999999999,0,0.0,0,0,0.0,0.0
1997,1,1,24,34,?9?9?9?9E0?9?9?9*9*9?9?9?9?9?9?9*9?9*9*9?9*9,30.68,23.49,64.2,0,0,0,0,0,0.5,0,0,9999,9999,9,999999999,0,0.0,0,0,0.0,0.0
1997,1,1,24,35,?9?9?9?9E0?9?9?9*9*9?9?9?9?9?9?9*9?9*9*9?9*9,30.68,23.49,64.2,0,0,0,0,0,0.5,0,0,9999,9999,9,999999999,0,0.0,0,0,0.0,0.0
1997,1,1,24,36,?9?9?9?9E0?9?9?9*9*9?9?9?9?9?9?9*9?9*9*9?9*9,30.68,23.49,64.2,0,0,0,0,0,0.5,0,0,9999,9999,9,999999999,0,0.0,0,0,0.0,0.0
1997,1,1,24,37,?9?9?9?9E0?9?9?9*9*9?9?9?9?9?9?9*9?9*9*9?9*9,30.68,23.49,64.2,0,0,0,0,0,0.5,0,0,9999,9999,9,999999999,0,0.0,0,0,0.0,0.0
1997,1,1,24,38,?9?9?9?9E0?9?9?9*9*9?9?9?9?9?9?9*9?9*9*9?9*9,30.68,23.49,64.2,0,0,0,0,0,0.5,0,0,9999,9999,9,999999999,0,0.0,0,0,0.0,0.0
1997,1,1,24,39,?9?9?9?9E0?9?9?9*9*9?9?9?9?9?9?9*9?9*9*9?9*9,30.68,23.49,64.2,0,0,0,0,0,0.5,0,0,9999,9999,9,999999999,0,0.0,0,0,0.0,0.0
1997,1,1,24,40,?9?9?9?9E0?9?9?9*9*9?9?9?9?9?9?9*9?9*9*9?9*9,30.68,23.49,64.2,0,0,0,0,0,0.5,0,0,9999,9999,9,999999999,0,0.0,0,0,0.0,0.0
1997,1,1,24,41,?9?9?9?9E0?9?9?9*9*9?9?9?9?9?9?9*9?9*9*9?9*9,30.68,23.49,64.2,0,0,0,0,0,0.5,0,0,9999,9999,9,999999999,0,0.0,0,0,0.0,0.0
1997,1,1,24,42,?9?9?9?9E0?9?9?9*9*9?9?9?9?9?9?9*9?9*9*9?9*9,30.68,23.49,64.2,0,0,0,0,0,0.5,0,0,9999,9999,9,999999999,0,0.0,0,0,0.0,0.0
1997,1,1,24,43,?9?9?9?9E0?9?9?9*9*9?9?9?9?9?9?9*9?9*9*9?9*9,30.68,23.49,64.2,0,0,0,0,0,0.5,0,0,9999,9999,9,999999999,0,0.0,0,0,0.0,0.0
1997,1,1,24,44,?9?9?9?9E0?9?9?9*9*9?9?9?9?9?9?9*9?9*9*9?9*9,30.68,23.49,64.2,0,0,0,0,0,0.5,0,0,9999,9999,9,999999999,0,0.0,0,0,0.0,0.0
1997,1,1,24,45,?9?9?9?9E0?9?9?9*9*9?9?9?9?9?9?9*9?9*9*9?9*9,30.68,23.49,64.2,0,0,0,0,0,0.5,0,0,9999,9999,9,999999999,0,0.0,0,0,0.0,0.0
1997,1,1,24,46,?9?9?9?9E0?9?9?9*9*9?9?9?9?9?9?9*9?9*9*9?9*9,30.68,23.49,64.2,0,0,0,0,0,0.5,0,0,9999,9999,9,999999999,0,0.0,0,0,0.0,0.0
1997,1,1,24,47,?9?9?9?9E0?9?9?9*9*9?9?9?9?9?9?9*9?9*9*9?9*9,30.68,23.49,64.2,0,0,0,0,0,0.5,0,0,9999,9999,9,999999999,0,0.0,0,0,0.0,0.0
1997,1,1,24,48,?9?9?9?9E0?9?9?9*9*9?9?9?9?9?9?9*9?9*9*9?9*9,30.68,23.49,64.2,0,0,0,0,0,0.5,0,0,9999,9999,9,999999999,0,0.0,0,0,0.0,0.0
1997,1,1,24,49,?9?9?9?9E0?9?9?9*9*9?9?9?9?9?9?9*9?9*9*9?9*9,30.68,23.49,64.2,0,0,0,0,0,0.5,0,0,9999,9999,9,999999999,0,0.0,0,0,0.0,0.0
1997,1,1,24,50,?9?9?9?9E0?9?9?9*9*9?9?9?9?9?9?9*9?9*9*9?9*9,30.68,23.49,64.2,0,0,0,0,0,0.5,0,0,9999,9999,9,999999999,0,0.0,0,0,0.0,0.0
1997,1,1,24,51,?9?9?9?9E0?9?9?9*9*9?9?9?9?9?9?9*9?9*9*9?9*9,30.68,23.49,64.2,0,0,0,0,0,0.5,0,0,9999,9999,9,999999999,0,0.0,0,0,0.0,0.0
1997,1,1,24,52,?9?9?9?9E0?9?9?9*9*9?9?9?9?9?9?9*9?9*9*9?9*9,30.68,23.49,64.2,0,0,0,0,0,0.5,0,0,9999,9999,9,999999999,0,0.0,0,0,0.0,0.0
1997,1,1,24,53,?9?9?9?9E0?9?9?9*9*9?9?9?9?9?9?9*9?9*9*9?9*9,30.68,23.49,64.2,0,0,0,0,0,0.5,0,0,9999,9999,9,999999999,0,0.0,0,0,0.0,0.0
1997,1,1,24,54,?9?9?9?9E0?9?9?9*9*9?9?9?9?9?9?9*9?9*9*9?9*9,30.68,23.49,64.2,0,0,0,0,0,0.5,0,0,9999,9999,9,999999999,0,0.0,0,0,0.0,0.0
1997,1,1,24,55,?9?9?9?9E0?9?9?9*9*9?9?9?9?9?9?9*9?9*9*9?9*9,30.68,23.49,64.2,0,0,0,0,0,0.5,0,0,9999,9999,9,999999999,0,0.0,0,0,0.0,0.0
1997,1,1,24,56,?9?9?9?9E0?9?9?9*9*9?9?9?9?9?9?9*9?9*9*9?9*9,30.68,23.49,64.2,0,0,0,0,0,0.5,0,0,9999,9999,9,999999999,0,0.0,0,0,0.0,0.0
1997,1,1,24,57,?9?9?9?9E0?9?9?9*9*9?9?9?9?9?9?9*9?9*9*9?9*9,30.68,23.49,64.2,0,0,0,0,0,0.5,0,0,9999,9999,9,999999999,0,0.0,0,0,0.0,0.0
1997,1,1,24,58,?9?9?9?9E0?9?9?9*9*9?9?9?9?9?9?9*9?9*9*9?9*9,30.68,23.49,64.2,0,0,0,0,0,0.5,0,0,9999,9999,9,999999999,0,0.0,0,0,0.0,0.0
1997,1,1,24,59,?9?9?9?9E0?9?9?9*9*9?9?9?9?9?9?9*9?9*9*9?9*9,30.68,23.49,64.2,0,0,0,0,0,0.5,0,0,9999,9999,9,999999999,0,0.0,0,0,0.0,0.0
1997,1,1,24,60,?9?9?9?9E0?9?9?9*9*9?9?9?9?9?9?9*9?9*9*9?9*9,30.68,23.49,64.2,0,0,0,0,0,0.5,0,0,9999,9999,9,999999999,0,0.0,0,0,0.0,0.0
