LOCATION,Kandy,CP,LKA,SRC-TMYx,434440,7.33440,80.62660,5.5,477.0
DESIGN CONDITIONS,1,2025 ASHRAE Handbook -- Fundamentals - Chapter 14 Climatic Design Information,Heating,1,17.5,18.7,14.9,11.2,23.4,16.1,12.1,22.8,3.8,26.3,3.3,26.5,0.1,50,0.193,Cooling,4,8.8,32.2,23.5,31.5,23.7,30.8,23.8,25.5,29.8,25.1,29.3,24.8,28.8,1.3,140,24.2,20.3,27.4,23.9,19.9,27.1,23.6,19.6,26.8,81.1,30.1,79.5,29.5,78.3,29.2,27.5,Extremes,4.1,3.3,2.7,14.9,35.0,1.0,1.9,14.2,36.3,13.6,37.4,13.0,38.5,12.3,39.8,14.4,26.6,0.9,0.4,13.8,26.8,13.3,27.1,12.8,27.3,12.1,27.6
TYPICAL/EXTREME PERIODS,3,No Dry Season - Week Near Average Annual,Typical,7/23,7/29,No Dry Season - Week Near Annual Max,Extreme,4/23,4/29,No Dry Season - Week Near Annual Min,Extreme,1/15,1/21
GROUND TEMPERATURES,3,.5,,,,24.15,23.87,23.79,23.85,24.24,24.67,25.08,25.38,25.46,25.32,24.99,24.57,2,,,,24.41,24.14,24.01,24.01,24.21,24.51,24.83,25.10,25.24,25.22,25.03,24.74,4,,,,24.58,24.37,24.24,24.20,24.28,24.45,24.66,24.87,25.02,25.05,24.97,24.80
HOLIDAYS/DAYLIGHT SAVINGS,No,0,0,0
COMMENTS 1,"NCEI ISD/ERA5 - #years=[15] Period of Record=2011-2025; Jan=2019; Feb=2018; Mar=2025; Apr=2021; May=2015; Jun=2016; Jul=2016; Aug=2020; Sep=2014; Oct=2024; Nov=2012; Dec=2020"
COMMENTS 2,"Downloaded from Climate.Onebuilding.org -- Ground temps represent undisturbed earth temperatures - calculated from this weather data."
DATA PERIODS,1,1,Data,Sunday,1/ 1,12/31
2026,7,31,9,50,?9?9?9?9E0?9?9?9*9*9?9?9?9?9?9?9*9?9*9*9?9*9,31.5,24.6,66.8,95220,0,0,393,0,0,0,0,0,0,0,222,0.4,10,10,8333.0,75,9,999999999,79,0.2170,0,88,0.160,0.0,0.0
2026,7,31,9,51,?9?9?9?9E0?9?9?9*9*9?9?9?9?9?9?9*9?9*9*9?9*9,31.5,24.6,66.8,95278,0,0,402,0,0,0,0,0,0,0,219,0.4,10,10,8333.0,77,9,999999999,81,0.2170,0,88,0.160,0.0,0.0
2026,7,31,9,52,?9?9?9?9E0?9?9?9?9?9?9?9?9?9?9?9*9?9*9*9?9*9,31.5,24.4,66.0,95278,0,0,392,0,0,0,0,0,0,0,222,0.8,10,10,8333.0,450,0,019999999,83,0.2170,0,88,0.160,0.0,0.0
2026,7,31,9,53,?9?9?9?9E0?9?9?9*9*9?9?9?9?9?9?9*9?9*9*9?9*9,31.5,24.3,65.7,95278,0,0,393,0,0,0,0,0,0,0,208,0.3,10,10,8333.0,121,9,999999999,81,0.2170,0,88,0.160,0.0,0.0
2026,7,31,9,54,?9?9?9?9E0?9?9?9*9*9?9?9?9?9?9?9*9?9*9*9?9*9,31.5,24.1,65.0,95272,0,0,396,0,0,0,0,0,0,0,208,0.3,10,10,8333.0,148,9,999999999,79,0.2170,0,88,0.160,0.0,0.0
2026,7,31,9,55,?9?9?9?9E0?9?9?9?9?9?9?9?9?9?9?9*9?9*9*9?9*9,31.5,24.0,64.8,95271,0,0,389,0,0,0,0,0,0,0,215,0.4,8,8,8333.0,3600,9,999999999,77,0.2170,0,88,0.160,0.0,0.0
2026,7,31,9,56,?9?9?9?9E0?9?9?9*9*9?9?9?9?9?9?9*9?9*9*9?9*9,31.4,24.0,64.8,95273,304,1246,393,73,134,40,19136,25050,12034,4369,223,0.4,10,10,8333.0,623,9,999999999,80,0.2170,0,88,0.160,0.0,0.0
2026,7,31,9,57,?9?9?9?9E0?9?9?9*9*9?9?9?9?9?9?9*9?9*9*9?9*9,31.4,24.0,64.9,95272,610,1325,391,239,375,97,39603,47923,16254,4253,230,0.4,9,9,8333.0,837,9,999999999,83,0.2170,0,88,0.160,0.0,0.0
2026,7,31,9,58,?9?9?9?9E0?9?9?9?9?9?9?9?9?9?9?9*9?9*9*9?9*9,31.5,24.1,65.0,95276,878,1325,396,434,558,113,56027,54960,19880,3492,270,0.5,8,8,8333.0,3000,9,999999999,85,0.2170,0,88,0.160,0.0,0.0
2026,7,31,9,59,?9?9?9?9E0?9?9?9*9*9?9?9?9?9?9?9*9?9*9*9?9*9,31.5,24.0,64.7,95275,1090,1325,401,552,547,152,66421,42280,26620,4080,231,0.3,8,8,8333.0,710,9,999999999,83,0.2170,0,88,0.160,0.1,0.0
2026,7,31,10,0,?9?9?9?9E0?9?9?9*9*9?9?9?9?9?9?9*9?9*9*9?9*9,31.5,24.0,64.6,95278,1232,1325,416,671,519,212,72104,29552,27766,4726,235,0.6,7,7,8333.0,575,9,999999999,81,0.2170,0,88,0.160,0.1,0.0
2026,7,31,10,1,?9?9?9?9E0?9?9?9*9*9?9?9?9?9?9?9*9?9*9*9?9*9,31.5,23.9,64.3,95277,1294,1325,420,717,552,192,71407,26924,26181,4619,237,0.5,7,7,8333.0,643,9,999999999,78,0.2170,0,88,0.160,0.1,0.0
2026,7,31,10,2,?9?9?9?9E0?9?9?9*9*9?9?9?9?9?9?9*9?9*9*9?9*9,31.6,24.0,64.0,95276,1271,1325,420,670,491,194,67050,28965,28649,4773,234,0.9,6,6,8333.0,622,9,999999999,76,0.2170,0,88,0.160,0.1,0.0
2026,7,31,10,3,?9?9?9?9E0?9?9?9*9*9?9?9?9?9?9?9*9?9*9*9?9*9,31.7,24.0,63.7,95278,1166,1325,425,591,398,222,58202,28355,30006,5030,248,0.5,5,5,8333.0,436,9,999999999,74,0.2170,0,88,0.160,0.8,0.0
2026,7,31,10,4,?9?9?9?9E0?9?9?9?9?9?9?9?9?9?9?9*9?9*9*9?9*9,31.7,23.9,63.4,95280,985,1325,432,456,325,191,43870,23043,26195,5200,230,0.7,8,8,8333.0,600,9,999999999,72,0.2170,0,88,0.160,3.2,0.0
2026,7,31,10,5,?9?9?9?9E0?9?9?9*9*9?9?9?9?9?9?9*9?9*9*9?9*9,31.7,23.9,63.4,95271,740,1325,422,296,222,143,27094,14259,19457,5749,241,0.6,6,6,8333.0,582,9,999999999,75,0.2170,0,88,0.160,2.3,0.0
2026,7,31,10,6,?9?9?9?9E0?9?9?9*9*9?9?9?9?9?9?9*9?9*9*9?9*9,31.7,23.8,63.1,95272,449,1325,426,144,114,91,13184,7501,11774,5592,235,0.7,7,7,8333.0,498,9,999999999,78,0.2170,0,88,0.160,0.6,0.0
2026,7,31,10,7,?9?9?9?9E0?9?9?9?9?9?9?9?9?9?9?9*9?9*9*9?9*9,31.8,23.8,62.9,95272,131,1325,414,58,63,40,4637,3431,4570,3240,232,0.7,9,9,8333.0,2400,0,919999999,82,0.2170,0,88,0.160,0.2,0.0
2026,7,31,10,8,?9?9?9?9E0?9?9?9*9*9?9?9?9?9?9?9*9?9*9*9?9*9,31.8,23.8,62.7,95272,0,539,412,10,0,8,670,775,670,680,233,0.5,9,9,8333.0,355,9,999999999,82,0.2170,0,88,0.160,0.2,0.0
2026,7,31,10,9,?9?9?9?9E0?9?9?9*9*9?9?9?9?9?9?9*9?9*9*9?9*9,31.8,23.9,62.8,95267,0,0,413,0,0,0,0,0,0,0,229,0.7,9,9,8333.0,200,9,999999999,83,0.2170,0,88,0.160,0.1,0.0
2026,7,31,10,10,?9?9?9?9E0?9?9?9?9?9?9?9?9?9?9?9*9?9*9*9?9*9,31.8,23.8,62.8,95268,0,0,407,0,0,0,0,0,0,0,221,0.6,8,8,8333.0,3000,0,919999999,83,0.2170,0,88,0.160,0.0,0.0
2026,7,31,10,11,?9?9?9?9E0?9?9?9*9*9?9?9?9?9?9?9*9?9*9*9?9*9,31.8,24.0,63.3,95218,0,0,404,0,0,0,0,0,0,0,214,0.7,10,10,8333.0,354,9,999999999,83,0.2170,0,88,0.160,0.0,0.0
2026,7,31,10,12,?9?9?9?9E0?9?9?9*9*9?9?9?9?9?9?9*9?9*9*9?9*9,31.9,24.0,63.3,95217,0,0,407,0,0,0,0,0,0,0,215,0.7,10,10,8333.0,218,9,999999999,84,0.2170,0,88,0.160,0.0,0.0
2026,7,31,10,13,?9?9?9?9E0?9?9?9?9?9?9?9?9?9?9?9*9?9*9*9?9*9,31.9,24.1,63.3,95218,0,0,405,0,0,0,0,0,0,0,220,0.7,4,4,8333.0,224,0,919999999,84,0.2170,0,88,0.160,0.0,0.0
2026,7,31,10,14,?9?9?9?9E0?9?9?9*9*9?9?9?9?9?9?9*9?9*9*9?9*9,31.9,24.1,63.3,95215,0,0,393,0,0,0,0,0,0,0,222,0.8,10,10,8333.0,75,9,999999999,79,0.2170,0,88,0.160,0.0,0.0
2026,7,31,10,15,?9?9?9?9E0?9?9?9*9*9?9?9?9?9?9?9*9?9*9*9?9*9,32.0,24.1,63.2,95212,0,0,402,0,0,0,0,0,0,0,219,0.7,10,10,8333.0,77,9,999999999,81,0.2170,0,88,0.160,0.0,0.0
2026,7,31,10,16,?9?9?9?9E0?9?9?9?9?9?9?9?9?9?9?9*9?9*9*9?9*9,31.9,24.0,63.1,95211,0,0,392,0,0,0,0,0,0,0,222,0.5,10,10,8333.0,450,0,019999999,83,0.2170,0,88,0.160,0.0,0.0
2026,7,31,10,17,?9?9?9?9E0?9?9?9*9*9?9?9?9?9?9?9*9?9*9*9?9*9,31.9,24.0,63.1,95207,0,0,393,0,0,0,0,0,0,0,208,0.7,10,10,8333.0,121,9,999999999,81,0.2170,0,88,0.160,0.0,0.0
2026,7,31,10,18,?9?9?9?9E0?9?9?9*9*9?9?9?9?9?9?9*9?9*9*9?9*9,31.9,24.0,62.9,95208,0,0,396,0,0,0,0,0,0,0,208,0.7,10,10,8333.0,148,9,999999999,79,0.2170,0,88,0.160,0.0,0.0
2026,7,31,10,19,?9?9?9?9E0?9?9?9?9?9?9?9?9?9?9?9*9?9*9*9?9*9,31.9,24.0,62.9,95208,0,0,389,0,0,0,0,0,0,0,215,0.7,8,8,8333.0,3600,9,999999999,77,0.2170,0,88,0.160,0.0,0.0
2026,7,31,10,20,?9?9?9?9E0?9?9?9*9*9?9?9?9?9?9?9*9?9*9*9?9*9,32.0,24.1,63.2,95204,304,1246,393,73,134,40,19136,25050,12034,4369,223,0.6,10,10,8333.0,623,9,999999999,80,0.2170,0,88,0.160,0.0,0.0
2026,7,31,10,21,?9?9?9?9E0?9?9?9*9*9?9?9?9?9?9?9*9?9*9*9?9*9,32.0,24.0,63.0,95202,610,1325,391,239,375,97,39603,47923,16254,4253,230,0.5,9,9,8333.0,837,9,999999999,83,0.2170,0,88,0.160,0.0,0.0
2026,7,31,10,22,?9?9?9?9E0?9?9?9?9?9?9?9?9?9?9?9*9?9*9*9?9*9,32.0,24.0,62.9,95205,878,1325,396,434,558,113,56027,54960,19880,3492,270,0.6,8,8,8333.0,3000,9,999999999,85,0.2170,0,88,0.160,0.0,0.0
2026,7,31,10,23,?9?9?9?9E0?9?9?9*9*9?9?9?9?9?9?9*9?9*9*9?9*9,32.0,24.0,62.7,95208,1090,1325,401,552,547,152,66421,42280,26620,4080,231,0.5,8,8,8333.0,710,9,999999999,83,0.2170,0,88,0.160,0.1,0.0
2026,7,31,10,24,?9?9?9?9E0?9?9?9*9*9?9?9?9?9?9?9*9?9*9*9?9*9,32.0,24.0,62.9,95207,1232,1325,416,671,519,212,72104,29552,27766,4726,235,0.7,7,7,8333.0,575,9,999999999,81,0.2170,0,88,0.160,0.1,0.0
2026,7,31,10,25,?9?9?9?9E0?9?9?9*9*9?9?9?9?9?9?9*9?9*9*9?9*9,32.0,23.9,62.5,95253,1294,1325,420,717,552,192,71407,26924,26181,4619,237,0.6,7,7,8333.0,643,9,999999999,78,0.2170,0,88,0.160,0.1,0.0
2026,7,31,10,26,?9?9?9?9E0?9?9?9*9*9?9?9?9?9?9?9*9?9*9*9?9*9,31.9,23.8,62.3,95267,1271,1325,420,670,491,194,67050,28965,28649,4773,234,0.6,6,6,8333.0,622,9,999999999,76,0.2170,0,88,0.160,0.1,0.0
2026,7,31,10,27,?9?9?9?9E0?9?9?9*9*9?9?9?9?9?9?9*9?9*9*9?9*9,31.9,23.7,61.9,95268,1166,1325,425,591,398,222,58202,28355,30006,5030,248,0.6,5,5,8333.0,436,9,999999999,74,0.2170,0,88,0.160,0.8,0.0
2026,7,31,10,28,?9?9?9?9E0?9?9?9?9?9?9?9?9?9?9?9*9?9*9*9?9*9,32.0,23.7,61.6,95264,985,1325,432,456,325,191,43870,23043,26195,5200,230,0.5,8,8,8333.0,600,9,999999999,72,0.2170,0,88,0.160,3.2,0.0
2026,7,31,10,29,?9?9?9?9E0?9?9?9*9*9?9?9?9?9?9?9*9?9*9*9?9*9,32.0,23.5,61.1,95268,740,1325,422,296,222,143,27094,14259,19457,5749,241,0.5,6,6,8333.0,582,9,999999999,75,0.2170,0,88,0.160,2.3,0.0
2026,7,31,10,30,?9?9?9?9E0?9?9?9*9*9?9?9?9?9?9?9*9?9*9*9?9*9,31.9,23.4,60.8,95268,449,1325,426,144,114,91,13184,7501,11774,5592,235,0.5,7,7,8333.0,498,9,999999999,78,0.2170,0,88,0.160,0.6,0.0
2026,7,31,10,31,?9?9?9?9E0?9?9?9?9?9?9?9?9?9?9?9*9?9*9*9?9*9,31.8,23.4,61.2,95270,131,1325,414,58,63,40,4637,3431,4570,3240,232,0.4,9,9,8333.0,2400,0,919999999,82,0.2170,0,88,0.160,0.2,0.0
2026,7,31,10,32,?9?9?9?9E0?9?9?9*9*9?9?9?9?9?9?9*9?9*9*9?9*9,31.8,23.4,61.3,95272,0,539,412,10,0,8,670,775,670,680,233,0.6,9,9,8333.0,355,9,999999999,82,0.2170,0,88,0.160,0.2,0.0
2026,7,31,10,33,?9?9?9?9E0?9?9?9*9*9?9?9?9?9?9?9*9?9*9*9?9*9,31.9,23.5,61.3,95274,0,0,413,0,0,0,0,0,0,0,229,0.5,9,9,8333.0,200,9,999999999,83,0.2170,0,88,0.160,0.1,0.0
2026,7,31,10,34,?9?9?9?9E0?9?9?9?9?9?9?9?9?9?9?9*9?9*9*9?9*9,31.9,23.5,61.1,95272,0,0,407,0,0,0,0,0,0,0,221,0.6,8,8,8333.0,3000,0,919999999,83,0.2170,0,88,0.160,0.0,0.0
2026,7,31,10,35,?9?9?9?9E0?9?9?9*9*9?9?9?9?9?9?9*9?9*9*9?9*9,32.0,23.5,61.0,95270,0,0,404,0,0,0,0,0,0,0,214,0.5,10,10,8333.0,354,9,999999999,83,0.2170,0,88,0.160,0.0,0.0
2026,7,31,10,36,?9?9?9?9E0?9?9?9*9*9?9?9?9?9?9?9*9?9*9*9?9*9,32.0,23.5,60.9,95270,0,0,407,0,0,0,0,0,0,0,215,0.7,10,10,8333.0,218,9,999999999,84,0.2170,0,88,0.160,0.0,0.0
2026,7,31,10,37,?9?9?9?9E0?9?9?9?9?9?9?9?9?9?9?9*9?9*9*9?9*9,32.0,23.6,61.3,95270,0,0,405,0,0,0,0,0,0,0,220,0.5,4,4,8333.0,224,0,919999999,84,0.2170,0,88,0.160,0.0,0.0
2026,7,31,10,38,?9?9?9?9E0?9?9?9*9*9?9?9?9?9?9?9*9?9*9*9?9*9,32.0,23.6,61.4,95270,0,0,393,0,0,0,0,0,0,0,222,0.6,10,10,8333.0,75,9,999999999,79,0.2170,0,88,0.160,0.0,0.0
2026,7,31,10,39,?9?9?9?9E0?9?9?9*9*9?9?9?9?9?9?9*9?9*9*9?9*9,31.9,23.6,61.5,95254,0,0,402,0,0,0,0,0,0,0,219,0.6,10,10,8333.0,77,9,999999999,81,0.2170,0,88,0.160,0.0,0.0
2026,7,31,10,40,?9?9?9?9E0?9?9?9?9?9?9?9?9?9?9?9*9?9*9*9?9*9,31.9,23.6,61.6,95269,0,0,392,0,0,0,0,0,0,0,222,0.7,10,10,8333.0,450,0,019999999,83,0.2170,0,88,0.160,0.0,0.0
2026,7,31,10,41,?9?9?9?9E0?9?9?9*9*9?9?9?9?9?9?9*9?9*9*9?9*9,32.0,23.6,61.5,95270,0,0,393,0,0,0,0,0,0,0,208,0.6,10,10,8333.0,121,9,999999999,81,0.2170,0,88,0.160,0.0,0.0
