LOCATION,Kandy,CP,LKA,SRC-TMYx,434440,7.33440,80.62660,5.5,477.0
DESIGN CONDITIONS,1,2025 ASHRAE Handbook -- Fundamentals - Chapter 14 Climatic Design Information,Heating,1,17.5,18.7,14.9,11.2,23.4,16.1,12.1,22.8,3.8,26.3,3.3,26.5,0.1,50,0.193,Cooling,4,8.8,32.2,23.5,31.5,23.7,30.8,23.8,25.5,29.8,25.1,29.3,24.8,28.8,1.3,140,24.2,20.3,27.4,23.9,19.9,27.1,23.6,19.6,26.8,81.1,30.1,79.5,29.5,78.3,29.2,27.5,Extremes,4.1,3.3,2.7,14.9,35.0,1.0,1.9,14.2,36.3,13.6,37.4,13.0,38.5,12.3,39.8,14.4,26.6,0.9,0.4,13.8,26.8,13.3,27.1,12.8,27.3,12.1,27.6
TYPICAL/EXTREME PERIODS,3,No Dry Season - Week Near Average Annual,Typical,7/23,7/29,No Dry Season - Week Near Annual Max,Extreme,4/23,4/29,No Dry Season - Week Near Annual Min,Extreme,1/15,1/21
GROUND TEMPERATURES,3,.5,,,,24.15,23.87,23.79,23.85,24.24,24.67,25.08,25.38,25.46,25.32,24.99,24.57,2,,,,24.41,24.14,24.01,24.01,24.21,24.51,24.83,25.10,25.24,25.22,25.03,24.74,4,,,,24.58,24.37,24.24,24.20,24.28,24.45,24.66,24.87,25.02,25.05,24.97,24.80
HOLIDAYS/DAYLIGHT SAVINGS,No,0,0,0
COMMENTS 1,"NCEI ISD/ERA5 - #years=[15] Period of Record=2011-2025; Jan=2019; Feb=2018; Mar=2025; Apr=2021; May=2015; Jun=2016; Jul=2016; Aug=2020; Sep=2014; Oct=2024; Nov=2012; Dec=2020"
COMMENTS 2,"Downloaded from Climate.Onebuilding.org -- Ground temps represent undisturbed earth temperatures - calculated from this weather data."
DATA PERIODS,1,1,Data,Sunday,1/ 1,12/31
2026,7,30,8,0,?9?9?9?9E0?9?9?9*9*9?9?9?9?9?9?9*9?9*9*9?9*9,30.4,24.8,72.1,95357,0,0,399,0,0,0,0,0,0,0,220,0.3,10,10,8333.0,617,9,999999999,78,0.2170,0,88,0.160,0.2,0.0
2026,7,30,8,1,?9?9?9?9E0?9?9?9*9*9?9?9?9?9?9?9*9?9*9*9?9*9,30.7,24.8,71.1,95348,0,0,400,0,0,0,0,0,0,0,216,0.4,10,10,8333.0,522,9,999999999,79,0.2170,0,88,0.160,0.2,0.0
2026,7,30,8,2,?9?9?9?9E0?9?9?9?9?9?9?9?9?9?9?9*9?9*9*9?9*9,30.9,24.8,70.2,95342,0,0,397,0,0,0,0,0,0,0,214,0.4,8,8,8333.0,3000,0,919999999,79,0.2170,0,88,0.160,0.1,0.0
2026,7,30,8,3,?9?9?9?9E0?9?9?9*9*9?9?9?9?9?9?9*9?9*9*9?9*9,31.1,24.8,69.2,95342,0,0,400,0,0,0,0,0,0,0,216,0.5,10,10,8333.0,403,9,999999999,79,0.2170,0,88,0.160,0.0,0.0
2026,7,30,8,4,?9?9?9?9E0?9?9?9*9*9?9?9?9?9?9?9*9?9*9*9?9*9,31.3,24.8,68.6,95347,0,0,391,0,0,0,0,0,0,0,212,0.4,10,10,8333.0,171,9,999999999,79,0.2170,0,88,0.160,0.0,0.0
2026,7,30,8,5,?9?9?9?9E0?9?9?9?9?9?9?9?9?9?9?9*9?9*9*9?9*9,31.4,24.8,68.2,95351,0,0,402,0,0,0,0,0,0,0,204,0.4,6,6,8333.0,3000,0,919999999,79,0.2170,0,88,0.160,0.0,0.0
2026,7,30,8,6,?9?9?9?9E0?9?9?9*9*9?9?9?9?9?9?9*9?9*9*9?9*9,31.4,24.8,67.9,95353,304,1249,402,59,71,42,16159,11061,14423,4928,203,0.5,9,9,8333.0,138,9,999999999,80,0.2170,0,88,0.160,0.0,0.0
2026,7,30,8,7,?9?9?9?9E0?9?9?9*9*9?9?9?9?9?9?9*9?9*9*9?9*9,31.5,24.8,67.8,95355,610,1324,395,196,192,124,32481,19705,25213,5960,206,0.4,9,9,8333.0,747,9,999999999,82,0.2170,0,88,0.160,0.0,0.0
2026,7,30,8,8,?9?9?9?9E0?9?9?9?9?9?9?9?9?9?9?9*9?9*9*9?9*9,31.5,24.8,67.8,95359,877,1324,399,351,281,189,46220,23039,31766,5790,205,0.5,4,4,8333.0,467,0,919999999,83,0.2170,0,88,0.160,0.0,0.0
2026,7,30,8,9,?9?9?9?9E0?9?9?9*9*9?9?9?9?9?9?9*9?9*9*9?9*9,31.5,24.8,67.7,95358,1089,1324,411,467,308,239,56711,22598,34094,6019,214,0.5,7,7,8333.0,609,9,999999999,83,0.2170,0,88,0.160,0.0,0.0
2026,7,30,8,10,?9?9?9?9E0?9?9?9*9*9?9?9?9?9?9?9*9?9*9*9?9*9,31.5,24.8,67.6,95360,1231,1324,422,566,330,274,64750,20310,35035,6435,229,0.5,7,7,8333.0,649,9,999999999,82,0.2170,0,88,0.160,0.1,0.0
2026,7,30,8,11,?9?9?9?9E0?9?9?9?9?9?9?9?9?9?9?9*9?9*9*9?9*9,31.5,24.7,67.5,95359,1292,1324,425,653,371,299,67576,18898,37889,5737,270,0.5,8,8,8333.0,541,0,919999999,81,0.2170,0,88,0.160,1.2,0.0
2026,7,30,8,12,?9?9?9?9E0?9?9?9*9*9?9?9?9?9?9?9*9?9*9*9?9*9,31.5,24.7,67.6,95355,1270,1324,427,596,252,351,57871,13970,39284,6744,250,0.4,6,6,8333.0,597,9,999999999,84,0.2170,0,88,0.160,1.5,0.0
2026,7,30,8,13,?9?9?9?9E0?9?9?9*9*9?9?9?9?9?9?9*9?9*9*9?9*9,31.4,24.7,67.6,95358,1164,1324,426,425,102,330,42568,7786,34125,8736,231,0.4,6,6,8333.0,484,9,999999999,86,0.2170,0,88,0.160,1.1,0.0
2026,7,30,8,14,?9?9?9?9E0?9?9?9?9?9?9?9?9?9?9?9*9?9*9*9?9*9,31.5,24.8,67.8,95358,984,1324,437,319,90,247,33575,7945,27189,7980,320,0.4,10,10,8333.0,4200,0,919999999,88,0.2170,0,88,0.160,1.4,0.0
2026,7,30,8,15,?9?9?9?9E0?9?9?9*9*9?9?9?9?9?9?9*9?9*9*9?9*9,31.4,24.8,68.0,95358,740,1324,421,256,108,186,24904,6892,20787,7011,226,0.4,7,7,8333.0,376,9,999999999,87,0.2170,0,88,0.160,1.7,0.0
2026,7,30,8,16,?9?9?9?9E0?9?9?9*9*9?9?9?9?9?9?9*9?9*9*9?9*9,31.5,24.8,68.0,95355,449,1324,422,156,64,122,12917,2972,11663,5682,202,0.4,8,8,8333.0,960,9,999999999,87,0.2170,0,88,0.160,0.4,0.0
2026,7,30,8,17,?9?9?9?9E0?9?9?9?9?9?9?9?9?9?9?9*9?9*9*9?9*9,31.5,24.8,68.0,95357,132,1324,417,55,10,53,3884,525,3884,2754,180,0.4,10,10,8333.0,3000,0,019999999,86,0.2170,0,88,0.160,0.1,0.0
2026,7,30,8,18,?9?9?9?9E0?9?9?9*9*9?9?9?9?9?9?9*9?9*9*9?9*9,31.4,24.9,68.3,95352,0,542,417,9,0,9,639,125,639,549,239,0.3,9,9,8333.0,323,9,999999999,84,0.2170,0,88,0.160,0.1,0.0
2026,7,30,8,19,?9?9?9?9E0?9?9?9*9*9?9?9?9?9?9?9*9?9*9*9?9*9,31.4,24.9,68.6,95348,0,0,414,0,0,0,0,0,0,0,236,0.4,9,9,8333.0,220,9,999999999,83,0.2170,0,88,0.160,0.0,0.0
2026,7,30,8,20,?9?9?9?9E0?9?9?9*9*9?9?9?9?9?9?9*9?9*9*9?9*9,31.4,24.9,68.6,95344,0,0,410,0,0,0,0,0,0,0,245,0.4,9,9,8333.0,132,9,999999999,82,0.2170,0,88,0.160,0.0,0.0
2026,7,30,8,21,?9?9?9?9E0?9?9?9*9*9?9?9?9?9?9?9*9?9*9*9?9*9,31.4,24.9,68.5,95343,0,0,404,0,0,0,0,0,0,0,237,0.5,9,9,8333.0,197,9,999999999,80,0.2170,0,88,0.160,0.0,0.0
2026,7,30,8,22,?9?9?9?9E0?9?9?9*9*9?9?9?9?9?9?9*9?9*9*9?9*9,31.4,24.9,68.7,95348,0,0,405,0,0,0,0,0,0,0,231,0.3,9,9,8333.0,325,9,999999999,79,0.2170,0,88,0.160,0.0,0.0
2026,7,30,8,23,?9?9?9?9E0?9?9?9?9?9?9?9?9?9?9?9*9?9*9*9?9*9,31.3,24.9,69.0,95346,0,0,400,0,0,0,0,0,0,0,227,0.3,10,10,8333.0,3000,0,019999999,77,0.2170,0,88,0.160,0.0,0.0
2026,7,30,8,24,?9?9?9?9E0?9?9?9*9*9?9?9?9?9?9?9*9?9*9*9?9*9,31.4,24.9,68.8,95348,0,0,399,0,0,0,0,0,0,0,220,0.5,10,10,8333.0,617,9,999999999,78,0.2170,0,88,0.160,0.2,0.0
2026,7,30,8,25,?9?9?9?9E0?9?9?9*9*9?9?9?9?9?9?9*9?9*9*9?9*9,31.5,24.9,68.5,95348,0,0,400,0,0,0,0,0,0,0,216,0.5,10,10,8333.0,522,9,999999999,79,0.2170,0,88,0.160,0.2,0.0
2026,7,30,8,26,?9?9?9?9E0?9?9?9?9?9?9?9?9?9?9?9*9?9*9*9?9*9,31.5,25.0,68.3,95343,0,0,397,0,0,0,0,0,0,0,214,0.6,8,8,8333.0,3000,0,919999999,79,0.2170,0,88,0.160,0.1,0.0
2026,7,30,8,27,?9?9?9?9E0?9?9?9*9*9?9?9?9?9?9?9*9?9*9*9?9*9,31.6,25.0,68.1,95347,0,0,400,0,0,0,0,0,0,0,216,0.6,10,10,8333.0,403,9,999999999,79,0.2170,0,88,0.160,0.0,0.0
2026,7,30,8,28,?9?9?9?9E0?9?9?9*9*9?9?9?9?9?9?9*9?9*9*9?9*9,31.6,25.0,68.0,95347,0,0,391,0,0,0,0,0,0,0,212,0.6,10,10,8333.0,171,9,999999999,79,0.2170,0,88,0.160,0.0,0.0
2026,7,30,8,29,?9?9?9?9E0?9?9?9?9?9?9?9?9?9?9?9*9?9*9*9?9*9,31.6,25.0,68.1,95341,0,0,402,0,0,0,0,0,0,0,204,0.4,6,6,8333.0,3000,0,919999999,79,0.2170,0,88,0.160,0.0,0.0
2026,7,30,8,30,?9?9?9?9E0?9?9?9*9*9?9?9?9?9?9?9*9?9*9*9?9*9,31.7,24.9,67.7,95337,304,1249,402,59,71,42,16159,11061,14423,4928,203,0.5,9,9,8333.0,138,9,999999999,80,0.2170,0,88,0.160,0.0,0.0
2026,7,30,8,31,?9?9?9?9E0?9?9?9*9*9?9?9?9?9?9?9*9?9*9*9?9*9,31.7,25.0,67.6,95339,610,1324,395,196,192,124,32481,19705,25213,5960,206,0.5,9,9,8333.0,747,9,999999999,82,0.2170,0,88,0.160,0.0,0.0
2026,7,30,8,32,?9?9?9?9E0?9?9?9?9?9?9?9?9?9?9?9*9?9*9*9?9*9,31.7,25.0,67.9,95334,877,1324,399,351,281,189,46220,23039,31766,5790,205,0.5,4,4,8333.0,467,0,919999999,83,0.2170,0,88,0.160,0.0,0.0
2026,7,30,8,33,?9?9?9?9E0?9?9?9*9*9?9?9?9?9?9?9*9?9*9*9?9*9,31.7,25.0,67.8,95333,1089,1324,411,467,308,239,56711,22598,34094,6019,214,0.6,7,7,8333.0,609,9,999999999,83,0.2170,0,88,0.160,0.0,0.0
2026,7,30,8,34,?9?9?9?9E0?9?9?9*9*9?9?9?9?9?9?9*9?9*9*9?9*9,31.7,25.0,67.9,95327,1231,1324,422,566,330,274,64750,20310,35035,6435,229,0.5,7,7,8333.0,649,9,999999999,82,0.2170,0,88,0.160,0.1,0.0
2026,7,30,8,35,?9?9?9?9E0?9?9?9?9?9?9?9?9?9?9?9*9?9*9*9?9*9,31.7,25.0,68.0,95327,1292,1324,425,653,371,299,67576,18898,37889,5737,270,0.5,8,8,8333.0,541,0,919999999,81,0.2170,0,88,0.160,1.2,0.0
2026,7,30,8,36,?9?9?9?9E0?9?9?9*9*9?9?9?9?9?9?9*9?9*9*9?9*9,31.7,25.0,67.9,95323,1270,1324,427,596,252,351,57871,13970,39284,6744,250,0.5,6,6,8333.0,597,9,999999999,84,0.2170,0,88,0.160,1.5,0.0
2026,7,30,8,37,?9?9?9?9E0?9?9?9*9*9?9?9?9?9?9?9*9?9*9*9?9*9,31.8,25.0,67.7,95330,1164,1324,426,425,102,330,42568,7786,34125,8736,231,0.5,6,6,8333.0,484,9,999999999,86,0.2170,0,88,0.160,1.1,0.0
2026,7,30,8,38,?9?9?9?9E0?9?9?9?9?9?9?9?9?9?9?9*9?9*9*9?9*9,31.7,25.0,67.6,95328,984,1324,437,319,90,247,33575,7945,27189,7980,320,0.5,10,10,8333.0,4200,0,919999999,88,0.2170,0,88,0.160,1.4,0.0
2026,7,30,8,39,?9?9?9?9E0?9?9?9*9*9?9?9?9?9?9?9*9?9*9*9?9*9,31.7,25.0,67.9,95326,740,1324,421,256,108,186,24904,6892,20787,7011,226,0.4,7,7,8333.0,376,9,999999999,87,0.2170,0,88,0.160,1.7,0.0
2026,7,30,8,40,?9?9?9?9E0?9?9?9*9*9?9?9?9?9?9?9*9?9*9*9?9*9,31.6,25.0,68.1,95318,449,1324,422,156,64,122,12917,2972,11663,5682,202,0.4,8,8,8333.0,960,9,999999999,87,0.2170,0,88,0.160,0.4,0.0
2026,7,30,8,41,?9?9?9?9E0?9?9?9?9?9?9?9?9?9?9?9*9?9*9*9?9*9,31.6,25.0,67.9,95325,132,1324,417,55,10,53,3884,525,3884,2754,180,0.4,10,10,8333.0,3000,0,019999999,86,0.2170,0,88,0.160,0.1,0.0
2026,7,30,8,42,?9?9?9?9E0?9?9?9*9*9?9?9?9?9?9?9*9?9*9*9?9*9,31.6,25.0,68.0,95316,0,542,417,9,0,9,639,125,639,549,239,0.4,9,9,8333.0,323,9,999999999,84,0.2170,0,88,0.160,0.1,0.0
2026,7,30,8,43,?9?9?9?9E0?9?9?9*9*9?9?9?9?9?9?9*9?9*9*9?9*9,31.7,24.9,67.7,95312,0,0,414,0,0,0,0,0,0,0,236,0.3,9,9,8333.0,220,9,999999999,83,0.2170,0,88,0.160,0.0,0.0
2026,7,30,8,44,?9?9?9?9E0?9?9?9*9*9?9?9?9?9?9?9*9?9*9*9?9*9,31.7,24.9,67.3,95308,0,0,410,0,0,0,0,0,0,0,245,0.4,9,9,8333.0,132,9,999999999,82,0.2170,0,88,0.160,0.0,0.0
2026,7,30,8,45,?9?9?9?9E0?9?9?9*9*9?9?9?9?9?9?9*9?9*9*9?9*9,31.7,24.9,67.3,95310,0,0,404,0,0,0,0,0,0,0,237,0.5,9,9,8333.0,197,9,999999999,80,0.2170,0,88,0.160,0.0,0.0
2026,7,30,8,46,?9?9?9?9E0?9?9?9*9*9?9?9?9?9?9?9*9?9*9*9?9*9,31.8,24.9,67.1,95312,0,0,405,0,0,0,0,0,0,0,231,0.4,9,9,8333.0,325,9,999999999,79,0.2170,0,88,0.160,0.0,0.0
2026,7,30,8,47,?9?9?9?9E0?9?9?9?9?9?9?9?9?9?9?9*9?9*9*9?9*9,31.8,24.9,67.0,95309,0,0,400,0,0,0,0,0,0,0,227,0.4,10,10,8333.0,3000,0,019999999,77,0.2170,0,88,0.160,0.0,0.0
2026,7,30,8,48,?9?9?9?9E0?9?9?9*9*9?9?9?9?9?9?9*9?9*9*9?9*9,31.8,24.9,67.0,95304,0,0,399,0,0,0,0,0,0,0,220,0.4,10,10,8333.0,617,9,999999999,78,0.2170,0,88,0.160,0.2,0.0
2026,7,30,8,49,?9?9?9?9E0?9?9?9*9*9?9?9?9?9?9?9*9?9*9*9?9*9,31.9,24.9,66.6,95309,0,0,400,0,0,0,0,0,0,0,216,0.4,10,10,8333.0,522,9,999999999,79,0.2170,0,88,0.160,0.2,0.0
2026,7,30,8,50,?9?9?9?9E0?9?9?9?9?9?9?9?9?9?9?9*9?9*9*9?9*9,31.9,24.8,66.4,95305,0,0,397,0,0,0,0,0,0,0,214,0.5,8,8,8333.0,3000,0,919999999,79,0.2170,0,88,0.160,0.1,0.0
