LOCATION,Kandy,CP,LKA,SRC-TMYx,434440,7.33440,80.62660,5.5,477.0
DESIGN CONDITIONS,1,2025 ASHRAE Handbook -- Fundamentals - Chapter 14 Climatic Design Information,Heating,1,17.5,18.7,14.9,11.2,23.4,16.1,12.1,22.8,3.8,26.3,3.3,26.5,0.1,50,0.193,Cooling,4,8.8,32.2,23.5,31.5,23.7,30.8,23.8,25.5,29.8,25.1,29.3,24.8,28.8,1.3,140,24.2,20.3,27.4,23.9,19.9,27.1,23.6,19.6,26.8,81.1,30.1,79.5,29.5,78.3,29.2,27.5,Extremes,4.1,3.3,2.7,14.9,35.0,1.0,1.9,14.2,36.3,13.6,37.4,13.0,38.5,12.3,39.8,14.4,26.6,0.9,0.4,13.8,26.8,13.3,27.1,12.8,27.3,12.1,27.6
TYPICAL/EXTREME PERIODS,3,No Dry Season - Week Near Average Annual,Typical,7/23,7/29,No Dry Season - Week Near Annual Max,Extreme,4/23,4/29,No Dry Season - Week Near Annual Min,Extreme,1/15,1/21
GROUND TEMPERATURES,3,.5,,,,24.15,23.87,23.79,23.85,24.24,24.67,25.08,25.38,25.46,25.32,24.99,24.57,2,,,,24.41,24.14,24.01,24.01,24.21,24.51,24.83,25.10,25.24,25.22,25.03,24.74,4,,,,24.58,24.37,24.24,24.20,24.28,24.45,24.66,24.87,25.02,25.05,24.97,24.80
HOLIDAYS/DAYLIGHT SAVINGS,No,0,0,0
COMMENTS 1,"NCEI ISD/ERA5 - #years=[15] Period of Record=2011-2025; Jan=2019; Feb=2018; Mar=2025; Apr=2021; May=2015; Jun=2016; Jul=2016; Aug=2020; Sep=2014; Oct=2024; Nov=2012; Dec=2020"
COMMENTS 2,"Downloaded from Climate.Onebuilding.org -- Ground temps represent undisturbed earth temperatures - calculated from this weather data."
DATA PERIODS,1,1,Data,Sunday,1/ 1,12/31
2026,7,31,6,50,?9?9?9?9E0?9?9?9*9*9?9?9?9?9?9?9*9?9*9*9?9*9,29.8,23.3,68.1,95477,0,0,393,0,0,0,0,0,0,0,222,0.5,10,10,8333.0,75,9,999999999,79,0.2170,0,88,0.160,0.0,0.0
2026,7,31,6,51,?9?9?9?9E0?9?9?9*9*9?9?9?9?9?9?9*9?9*9*9?9*9,29.9,23.4,68.1,95476,0,0,402,0,0,0,0,0,0,0,219,0.4,10,10,8333.0,77,9,999999999,81,0.2170,0,88,0.160,0.0,0.0
2026,7,31,6,52,?9?9?9?9E0?9?9?9?9?9?9?9?9?9?9?9*9?9*9*9?9*9,29.9,23.4,68.3,95481,0,0,392,0,0,0,0,0,0,0,222,0.5,10,10,8333.0,450,0,019999999,83,0.2170,0,88,0.160,0.0,0.0
2026,7,31,6,53,?9?9?9?9E0?9?9?9*9*9?9?9?9?9?9?9*9?9*9*9?9*9,30.0,23.6,68.3,95481,0,0,393,0,0,0,0,0,0,0,208,0.6,10,10,8333.0,121,9,999999999,81,0.2170,0,88,0.160,0.0,0.0
2026,7,31,6,54,?9?9?9?9E0?9?9?9*9*9?9?9?9?9?9?9*9?9*9*9?9*9,30.1,23.7,68.5,95479,0,0,396,0,0,0,0,0,0,0,208,0.7,10,10,8333.0,148,9,999999999,79,0.2170,0,88,0.160,0.0,0.0
2026,7,31,6,55,?9?9?9?9E0?9?9?9?9?9?9?9?9?9?9?9*9?9*9*9?9*9,30.2,23.6,68.0,95472,0,0,389,0,0,0,0,0,0,0,215,0.6,8,8,8333.0,3600,9,999999999,77,0.2170,0,88,0.160,0.0,0.0
2026,7,31,6,56,?9?9?9?9E0?9?9?9*9*9?9?9?9?9?9?9*9?9*9*9?9*9,30.2,23.6,67.8,95470,304,1246,393,73,134,40,19136,25050,12034,4369,223,0.5,10,10,8333.0,623,9,999999999,80,0.2170,0,88,0.160,0.0,0.0
2026,7,31,6,57,?9?9?9?9E0?9?9?9*9*9?9?9?9?9?9?9*9?9*9*9?9*9,30.3,23.5,67.4,95465,610,1325,391,239,375,97,39603,47923,16254,4253,230,0.4,9,9,8333.0,837,9,999999999,83,0.2170,0,88,0.160,0.0,0.0
2026,7,31,6,58,?9?9?9?9E0?9?9?9?9?9?9?9?9?9?9?9*9?9*9*9?9*9,30.2,23.4,67.0,95472,878,1325,396,434,558,113,56027,54960,19880,3492,270,0.4,8,8,8333.0,3000,9,999999999,85,0.2170,0,88,0.160,0.0,0.0
2026,7,31,6,59,?9?9?9?9E0?9?9?9*9*9?9?9?9?9?9?9*9?9*9*9?9*9,30.1,23.3,67.2,95472,1090,1325,401,552,547,152,66421,42280,26620,4080,231,0.5,8,8,8333.0,710,9,999999999,83,0.2170,0,88,0.160,0.1,0.0
2026,7,31,7,0,?9?9?9?9E0?9?9?9*9*9?9?9?9?9?9?9*9?9*9*9?9*9,30.1,23.4,67.4,95475,1232,1325,416,671,519,212,72104,29552,27766,4726,235,0.4,7,7,8333.0,575,9,999999999,81,0.2170,0,88,0.160,0.1,0.0
2026,7,31,7,1,?9?9?9?9E0?9?9?9*9*9?9?9?9?9?9?9*9?9*9*9?9*9,30.2,23.5,67.5,95473,1294,1325,420,717,552,192,71407,26924,26181,4619,237,0.5,7,7,8333.0,643,9,999999999,78,0.2170,0,88,0.160,0.1,0.0
2026,7,31,7,2,?9?9?9?9E0?9?9?9*9*9?9?9?9?9?9?9*9?9*9*9?9*9,30.2,23.5,67.3,95471,1271,1325,420,670,491,194,67050,28965,28649,4773,234,0.7,6,6,8333.0,622,9,999999999,76,0.2170,0,88,0.160,0.1,0.0
2026,7,31,7,3,?9?9?9?9E0?9?9?9*9*9?9?9?9?9?9?9*9?9*9*9?9*9,30.3,23.6,67.6,95470,1166,1325,425,591,398,222,58202,28355,30006,5030,248,0.6,5,5,8333.0,436,9,999999999,74,0.2170,0,88,0.160,0.8,0.0
2026,7,31,7,4,?9?9?9?9E0?9?9?9?9?9?9?9?9?9?9?9*9?9*9*9?9*9,30.4,23.7,67.6,95469,985,1325,432,456,325,191,43870,23043,26195,5200,230,0.5,8,8,8333.0,600,9,999999999,72,0.2170,0,88,0.160,3.2,0.0
2026,7,31,7,5,?9?9?9?9E0?9?9?9*9*9?9?9?9?9?9?9*9?9*9*9?9*9,30.4,23.6,67.4,95470,740,1325,422,296,222,143,27094,14259,19457,5749,241,0.5,6,6,8333.0,582,9,999999999,75,0.2170,0,88,0.160,2.3,0.0
2026,7,31,7,6,?9?9?9?9E0?9?9?9*9*9?9?9?9?9?9?9*9?9*9*9?9*9,30.3,23.5,67.2,95464,449,1325,426,144,114,91,13184,7501,11774,5592,235,0.4,7,7,8333.0,498,9,999999999,78,0.2170,0,88,0.160,0.6,0.0
2026,7,31,7,7,?9?9?9?9E0?9?9?9?9?9?9?9?9?9?9?9*9?9*9*9?9*9,30.1,23.5,67.8,95423,131,1325,414,58,63,40,4637,3431,4570,3240,232,0.3,9,9,8333.0,2400,0,919999999,82,0.2170,0,88,0.160,0.2,0.0
2026,7,31,7,8,?9?9?9?9E0?9?9?9*9*9?9?9?9?9?9?9*9?9*9*9?9*9,30.0,23.6,68.7,95392,0,539,412,10,0,8,670,775,670,680,233,0.4,9,9,8333.0,355,9,999999999,82,0.2170,0,88,0.160,0.2,0.0
2026,7,31,7,9,?9?9?9?9E0?9?9?9*9*9?9?9?9?9?9?9*9?9*9*9?9*9,30.0,23.7,69.0,95395,0,0,413,0,0,0,0,0,0,0,229,0.6,9,9,8333.0,200,9,999999999,83,0.2170,0,88,0.160,0.1,0.0
2026,7,31,7,10,?9?9?9?9E0?9?9?9?9?9?9?9?9?9?9?9*9?9*9*9?9*9,30.1,23.7,68.7,95391,0,0,407,0,0,0,0,0,0,0,221,0.4,8,8,8333.0,3000,0,919999999,83,0.2170,0,88,0.160,0.0,0.0
2026,7,31,7,11,?9?9?9?9E0?9?9?9*9*9?9?9?9?9?9?9*9?9*9*9?9*9,30.1,23.7,68.7,95392,0,0,404,0,0,0,0,0,0,0,214,0.4,10,10,8333.0,354,9,999999999,83,0.2170,0,88,0.160,0.0,0.0
2026,7,31,7,12,?9?9?9?9E0?9?9?9*9*9?9?9?9?9?9?9*9?9*9*9?9*9,30.2,23.7,68.6,95436,0,0,407,0,0,0,0,0,0,0,215,0.4,10,10,8333.0,218,9,999999999,84,0.2170,0,88,0.160,0.0,0.0
2026,7,31,7,13,?9?9?9?9E0?9?9?9?9?9?9?9?9?9?9?9*9?9*9*9?9*9,30.3,23.8,68.2,95452,0,0,405,0,0,0,0,0,0,0,220,0.6,4,4,8333.0,224,0,919999999,84,0.2170,0,88,0.160,0.0,0.0
2026,7,31,7,14,?9?9?9?9E0?9?9?9*9*9?9?9?9?9?9?9*9?9*9*9?9*9,30.4,23.9,68.2,95451,0,0,393,0,0,0,0,0,0,0,222,0.4,10,10,8333.0,75,9,999999999,79,0.2170,0,88,0.160,0.0,0.0
2026,7,31,7,15,?9?9?9?9E0?9?9?9*9*9?9?9?9?9?9?9*9?9*9*9?9*9,30.5,23.8,67.5,95451,0,0,402,0,0,0,0,0,0,0,219,0.5,10,10,8333.0,77,9,999999999,81,0.2170,0,88,0.160,0.0,0.0
2026,7,31,7,16,?9?9?9?9E0?9?9?9?9?9?9?9?9?9?9?9*9?9*9*9?9*9,30.5,23.6,66.7,95450,0,0,392,0,0,0,0,0,0,0,222,0.4,10,10,8333.0,450,0,019999999,83,0.2170,0,88,0.160,0.0,0.0
2026,7,31,7,17,?9?9?9?9E0?9?9?9*9*9?9?9?9?9?9?9*9?9*9*9?9*9,30.5,23.7,67.0,95450,0,0,393,0,0,0,0,0,0,0,208,0.5,10,10,8333.0,121,9,999999999,81,0.2170,0,88,0.160,0.0,0.0
2026,7,31,7,18,?9?9?9?9E0?9?9?9*9*9?9?9?9?9?9?9*9?9*9*9?9*9,30.5,23.6,66.7,95444,0,0,396,0,0,0,0,0,0,0,208,0.4,10,10,8333.0,148,9,999999999,79,0.2170,0,88,0.160,0.0,0.0
2026,7,31,7,19,?9?9?9?9E0?9?9?9?9?9?9?9?9?9?9?9*9?9*9*9?9*9,30.5,23.6,66.5,95447,0,0,389,0,0,0,0,0,0,0,215,0.5,8,8,8333.0,3600,9,999999999,77,0.2170,0,88,0.160,0.0,0.0
2026,7,31,7,20,?9?9?9?9E0?9?9?9*9*9?9?9?9?9?9?9*9?9*9*9?9*9,30.6,23.6,66.6,95446,304,1246,393,73,134,40,19136,25050,12034,4369,223,0.4,10,10,8333.0,623,9,999999999,80,0.2170,0,88,0.160,0.0,0.0
2026,7,31,7,21,?9?9?9?9E0?9?9?9*9*9?9?9?9?9?9?9*9?9*9*9?9*9,30.6,23.5,66.2,95442,610,1325,391,239,375,97,39603,47923,16254,4253,230,0.4,9,9,8333.0,837,9,999999999,83,0.2170,0,88,0.160,0.0,0.0
2026,7,31,7,22,?9?9?9?9E0?9?9?9?9?9?9?9?9?9?9?9*9?9*9*9?9*9,30.6,23.5,66.0,95438,878,1325,396,434,558,113,56027,54960,19880,3492,270,0.4,8,8,8333.0,3000,9,999999999,85,0.2170,0,88,0.160,0.0,0.0
2026,7,31,7,23,?9?9?9?9E0?9?9?9*9*9?9?9?9?9?9?9*9?9*9*9?9*9,30.6,23.5,66.1,95455,1090,1325,401,552,547,152,66421,42280,26620,4080,231,0.4,8,8,8333.0,710,9,999999999,83,0.2170,0,88,0.160,0.1,0.0
2026,7,31,7,24,?9?9?9?9E0?9?9?9*9*9?9?9?9?9?9?9*9?9*9*9?9*9,30.7,23.6,66.2,95465,1232,1325,416,671,519,212,72104,29552,27766,4726,235,0.6,7,7,8333.0,575,9,999999999,81,0.2170,0,88,0.160,0.1,0.0
2026,7,31,7,25,?9?9?9?9E0?9?9?9*9*9?9?9?9?9?9?9*9?9*9*9?9*9,30.7,23.8,66.5,95471,1294,1325,420,717,552,192,71407,26924,26181,4619,237,0.6,7,7,8333.0,643,9,999999999,78,0.2170,0,88,0.160,0.1,0.0
2026,7,31,7,26,?9?9?9?9E0?9?9?9*9*9?9?9?9?9?9?9*9?9*9*9?9*9,30.8,23.9,67.0,95477,1271,1325,420,670,491,194,67050,28965,28649,4773,234,0.5,6,6,8333.0,622,9,999999999,76,0.2170,0,88,0.160,0.1,0.0
2026,7,31,7,27,?9?9?9?9E0?9?9?9*9*9?9?9?9?9?9?9*9?9*9*9?9*9,30.7,23.9,67.1,95477,1166,1325,425,591,398,222,58202,28355,30006,5030,248,0.5,5,5,8333.0,436,9,999999999,74,0.2170,0,88,0.160,0.8,0.0
2026,7,31,7,28,?9?9?9?9E0?9?9?9?9?9?9?9?9?9?9?9*9?9*9*9?9*9,30.8,23.9,67.1,95480,985,1325,432,456,325,191,43870,23043,26195,5200,230,0.5,8,8,8333.0,600,9,999999999,72,0.2170,0,88,0.160,3.2,0.0
2026,7,31,7,29,?9?9?9?9E0?9?9?9*9*9?9?9?9?9?9?9*9?9*9*9?9*9,30.7,23.9,66.9,95479,740,1325,422,296,222,143,27094,14259,19457,5749,241,0.4,6,6,8333.0,582,9,999999999,75,0.2170,0,88,0.160,2.3,0.0
2026,7,31,7,30,?9?9?9?9E0?9?9?9*9*9?9?9?9?9?9?9*9?9*9*9?9*9,30.6,23.7,66.7,95478,449,1325,426,144,114,91,13184,7501,11774,5592,235,0.3,7,7,8333.0,498,9,999999999,78,0.2170,0,88,0.160,0.6,0.0
2026,7,31,7,31,?9?9?9?9E0?9?9?9?9?9?9?9?9?9?9?9*9?9*9*9?9*9,30.5,23.7,67.1,95473,131,1325,414,58,63,40,4637,3431,4570,3240,232,0.4,9,9,8333.0,2400,0,919999999,82,0.2170,0,88,0.160,0.2,0.0
2026,7,31,7,32,?9?9?9?9E0?9?9?9*9*9?9?9?9?9?9?9*9?9*9*9?9*9,30.6,23.9,67.8,95468,0,539,412,10,0,8,670,775,670,680,233,0.5,9,9,8333.0,355,9,999999999,82,0.2170,0,88,0.160,0.2,0.0
2026,7,31,7,33,?9?9?9?9E0?9?9?9*9*9?9?9?9?9?9?9*9?9*9*9?9*9,30.6,23.8,67.3,95468,0,0,413,0,0,0,0,0,0,0,229,0.4,9,9,8333.0,200,9,999999999,83,0.2170,0,88,0.160,0.1,0.0
2026,7,31,7,34,?9?9?9?9E0?9?9?9?9?9?9?9?9?9?9?9*9?9*9*9?9*9,30.6,23.9,67.5,95472,0,0,407,0,0,0,0,0,0,0,221,0.4,8,8,8333.0,3000,0,919999999,83,0.2170,0,88,0.160,0.0,0.0
