LOCATION,Kandy,CP,LKA,SRC-TMYx,434440,7.33440,80.62660,5.5,477.0
DESIGN CONDITIONS,1,2025 ASHRAE Handbook -- Fundamentals - Chapter 14 Climatic Design Information,Heating,1,17.5,18.7,14.9,11.2,23.4,16.1,12.1,22.8,3.8,26.3,3.3,26.5,0.1,50,0.193,Cooling,4,8.8,32.2,23.5,31.5,23.7,30.8,23.8,25.5,29.8,25.1,29.3,24.8,28.8,1.3,140,24.2,20.3,27.4,23.9,19.9,27.1,23.6,19.6,26.8,81.1,30.1,79.5,29.5,78.3,29.2,27.5,Extremes,4.1,3.3,2.7,14.9,35.0,1.0,1.9,14.2,36.3,13.6,37.4,13.0,38.5,12.3,39.8,14.4,26.6,0.9,0.4,13.8,26.8,13.3,27.1,12.8,27.3,12.1,27.6
TYPICAL/EXTREME PERIODS,3,No Dry Season - Week Near Average Annual,Typical,7/23,7/29,No Dry Season - Week Near Annual Max,Extreme,4/23,4/29,No Dry Season - Week Near Annual Min,Extreme,1/15,1/21
GROUND TEMPERATURES,3,.5,,,,24.15,23.87,23.79,23.85,24.24,24.67,25.08,25.38,25.46,25.32,24.99,24.57,2,,,,24.41,24.14,24.01,24.01,24.21,24.51,24.83,25.10,25.24,25.22,25.03,24.74,4,,,,24.58,24.37,24.24,24.20,24.28,24.45,24.66,24.87,25.02,25.05,24.97,24.80
HOLIDAYS/DAYLIGHT SAVINGS,No,0,0,0
COMMENTS 1,"NCEI ISD/ERA5 - #years=[15] Period of Record=2011-2025; Jan=2019; Feb=2018; Mar=2025; Apr=2021; May=2015; Jun=2016; Jul=2016; Aug=2020; Sep=2014; Oct=2024; Nov=2012; Dec=2020"
COMMENTS 2,"Downloaded from Climate.Onebuilding.org -- Ground temps represent undisturbed earth temperatures - calculated from this weather data."
DATA PERIODS,1,60,Data,Tuesday,7/21,7/21
2026,7,21,1,1,?9?9?9?9E0?9?9?9*9*9?9?9?9?9?9?9*9?9*9*9?9*9,28.93,23.19,71.3,0,0,0,0,0,0.5,0,0,9999,9999,9,999999999,0,0.0,0,0,0.0,0.0
2026,7,21,1,2,?9?9?9?9E0?9?9?9*9*9?9?9?9?9?9?9*9?9*9*9?9*9,28.93,23.19,71.3,0,0,0,0,0,0.5,0,0,9999,9999,9,999999999,0,0.0,0,0,0.0,0.0
2026,7,21,1,3,?9?9?9?9E0?9?9?9*9*9?9?9?9?9?9?9*9?9*9*9?9*9,28.93,23.19,71.3,0,0,0,0,0,0.5,0,0,9999,9999,9,999999999,0,0.0,0,0,0.0,0.0
2026,7,21,1,4,?9?9?9?9E0?9?9?9*9*9?9?9?9?9?9?9*9?9*9*9?9*9,28.93,23.19,71.3,0,0,0,0,0,0.5,0,0,9999,9999,9,999999999,0,0.0,0,0,0.0,0.0
2026,7,21,1,5,?9?9?9?9E0?9?9?9*9*9?9?9?9?9?9?9*9?9*9*9?9*9,28.93,23.19,71.3,0,0,0,0,0,0.5,0,0,9999,9999,9,999999999,0,0.0,0,0,0.0,0.0
2026,7,21,1,6,?9?9?9?9E0?9?9?9*9*9?9?9?9?9?9?9*9?9*9*9?9*9,28.93,23.19,71.3,0,0,0,0,0,0.5,0,0,9999,9999,9,999999999,0,0.0,0,0,0.0,0.0
2026,7,21,1,7,?9?9?9?9E0?9?9?9*9*9?9?9?9?9?9?9*9?9*9*9?9*9,28.93,23.19,71.3,0,0,0,0,0,0.5,0,0,9999,9999,9,999999999,0,0.0,0,0,0.0,0.0
2026,7,21,1,8,?9?9?9?9E0?9?9?9*9*9?9?9?9?9?9?9*9?9*9*9?9*9,28.93,23.19,71.3,0,0,0,0,0,0.5,0,0,9999,9999,9,999999999,0,0.0,0,0,0.0,0.0
2026,7,21,1,9,?9?9?9?9E0?9?9?9*9*9?9?9?9?9?9?9*9?9*9*9?9*9,28.93,23.19,71.3,0,0,0,0,0,0.5,0,0,9999,9999,9,999999999,0,0.0,0,0,0.0,0.0
2026,7,21,1,10,?9?9?9?9E0?9?9?9*9*9?9?9?9?9?9?9*9?9*9*9?9*9,28.93,23.19,71.3,0,0,0,0,0,0.5,0,0,9999,9999,9,999999999,0,0.0,0,0,0.0,0.0
2026,7,21,1,11,?9?9?9?9E0?9?9?9*9*9?9?9?9?9?9?9*9?9*9*9?9*9,28.93,23.19,71.3,0,0,0,0,0,0.5,0,0,9999,9999,9,999999999,0,0.0,0,0,0.0,0.0
2026,7,21,1,12,?9?9?9?9E0?9?9?9*9*9?9?9?9?9?9?9*9?9*9*9?9*9,28.93,23.19,71.3,0,0,0,0,0,0.5,0,0,9999,9999,9,999999999,0,0.0,0,0,0.0,0.0
2026,7,21,1,13,?9?9?9?9E0?9?9?9*9*9?9?9?9?9?9?9*9?9*9*9?9*9,28.93,23.19,71.3,0,0,0,0,0,0.5,0,0,9999,9999,9,999999999,0,0.0,0,0,0.0,0.0
2026,7,21,1,14,?9?9?9?9E0?9?9?9*9*9?9?9?9?9?9?9*9?9*9*9?9*9,28.93,23.19,71.3,0,0,0,0,0,0.5,0,0,9999,9999,9,999999999,0,0.0,0,0,0.0,0.0
2026,7,21,1,15,?9?9?9?9E0?9?9?9*9*9?9?9?9?9?9?9*9?9*9*9?9*9,28.93,23.19,71.3,0,0,0,0,0,0.5,0,0,9999,9999,9,999999999,0,0.0,0,0,0.0,0.0
2026,7,21,1,16,?9?9?9?9E0?9?9?9*9*9?9?9?9?9?9?9*9?9*9*9?9*9,28.93,23.19,71.3,0,0,0,0,0,0.5,0,0,9999,9999,9,999999999,0,0.0,0,0,0.0,0.0
2026,7,21,1,17,?9?9?9?9E0?9?9?9*9*9?9?9?9?9?9?9*9?9*9*9?9*9,28.93,23.19,71.3,0,0,0,0,0,0.5,0,0,9999,9999,9,999999999,0,0.0,0,0,0.0,0.0
2026,7,21,1,18,?9?9?9?9E0?9?9?9*9*9?9?9?9?9?9?9*9?9*9*9?9*9,28.93,23.19,71.3,0,0,0,0,0,0.5,0,0,9999,9999,9,999999999,0,0.0,0,0,0.0,0.0
2026,7,21,1,19,?9?9?9?9E0?9?9?9*9*9?9?9?9?9?9?9*9?9*9*9?9*9,28.93,23.19,71.3,0,0,0,0,0,0.5,0,0,9999,9999,9,999999999,0,0.0,0,0,0.0,0.0
2026,7,21,1,20,?9?9?9?9E0?9?9?9*9*9?9?9?9?9?9?9*9?9*9*9?9*9,28.93,23.19,71.3,0,0,0,0,0,0.5,0,0,9999,9999,9,999999999,0,0.0,0,0,0.0,0.0
2026,7,21,1,21,?9?9?9?9E0?9?9?9*9*9?9?9?9?9?9?9*9?9*9*9?9*9,28.93,23.19,71.3,0,0,0,0,0,0.5,0,0,9999,9999,9,999999999,0,0.0,0,0,0.0,0.0
2026,7,21,1,22,?9?9?9?9E0?9?9?9*9*9?9?9?9?9?9?9*9?9*9*9?9*9,28.93,23.19,71.3,0,0,0,0,0,0.5,0,0,9999,9999,9,999999999,0,0.0,0,0,0.0,0.0
2026,7,21,1,23,?9?9?9?9E0?9?9?9*9*9?9?9?9?9?9?9*9?9*9*9?9*9,28.93,23.19,71.3,0,0,0,0,0,0.5,0,0,9999,9999,9,999999999,0,0.0,0,0,0.0,0.0
2026,7,21,1,24,?9?9?9?9E0?9?9?9*9*9?9?9?9?9?9?9*9?9*9*9?9*9,28.93,23.19,71.3,0,0,0,0,0,0.5,0,0,9999,9999,9,999999999,0,0.0,0,0,0.0,0.0
2026,7,21,1,25,?9?9?9?9E0?9?9?9*9*9?9?9?9?9?9?9*9?9*9*9?9*9,28.93,23.19,71.3,0,0,0,0,0,0.5,0,0,9999,9999,9,999999999,0,0.0,0,0,0.0,0.0
2026,7,21,1,26,?9?9?9?9E0?9?9?9*9*9?9?9?9?9?9?9*9?9*9*9?9*9,28.93,23.19,71.3,0,0,0,0,0,0.5,0,0,9999,9999,9,999999999,0,0.0,0,0,0.0,0.0
2026,7,21,1,27,?9?9?9?9E0?9?9?9*9*9?9?9?9?9?9?9*9?9*9*9?9*9,28.93,23.19,71.3,0,0,0,0,0,0.5,0,0,9999,9999,9,999999999,0,0.0,0,0,0.0,0.0
2026,7,21,1,28,?9?9?9?9E0?9?9?9*9*9?9?9?9?9?9?9*9?9*9*9?9*9,28.93,23.19,71.3,0,0,0,0,0,0.5,0,0,9999,9999,9,999999999,0,0.0,0,0,0.0,0.0
2026,7,21,1,29,?9?9?9?9E0?9?9?9*9*9?9?9?9?9?9?9*9?9*9*9?9*9,28.93,23.19,71.3,0,0,0,0,0,0.5,0,0,9999,9999,9,999999999,0,0.0,0,0,0.0,0.0
2026,7,21,1,30,?9?9?9?9E0?9?9?9*9*9?9?9?9?9?9?9*9?9*9*9?9*9,28.93,23.19,71.3,0,0,0,0,0,0.5,0,0,9999,9999,9,999999999,0,0.0,0,0,0.0,0.0
2026,7,21,1,31,?9?9?9?9E0?9?9?9*9*9?9?9?9?9?9?9*9?9*9*9?9*9,28.93,23.19,71.3,0,0,0,0,0,0.5,0,0,9999,9999,9,999999999,0,0.0,0,0,0.0,0.0
2026,7,21,1,32,?9?9?9?9E0?9?9?9*9*9?9?9?9?9?9?9*9?9*9*9?9*9,28.93,23.19,71.3,0,0,0,0,0,0.5,0,0,9999,9999,9,999999999,0,0.0,0,0,0.0,0.0
2026,7,21,1,33,?9?9?9?9E0?9?9?9*9*9?9?9?9?9?9?9*9?9*9*9?9*9,28.93,23.19,71.3,0,0,0,0,0,0.5,0,0,9999,9999,9,999999999,0,0.0,0,0,0.0,0.0
2026,7,21,1,34,?9?9?9?9E0?9?9?9*9*9?9?9?9?9?9?9*9?9*9*9?9*9,28.93,23.19,71.3,0,0,0,0,0,0.5,0,0,9999,9999,9,999999999,0,0.0,0,0,0.0,0.0
2026,7,21,1,35,?9?9?9?9E0?9?9?9*9*9?9?9?9?9?9?9*9?9*9*9?9*9,28.93,23.19,71.3,0,0,0,0,0,0.5,0,0,9999,9999,9,999999999,0,0.0,0,0,0.0,0.0
2026,7,21,1,36,?9?9?9?9E0?9?9?9*9*9?9?9?9?9?9?9*9?9*9*9?9*9,28.93,23.19,71.3,0,0,0,0,0,0.5,0,0,9999,9999,9,999999999,0,0.0,0,0,0.0,0.0
2026,7,21,1,37,?9?9?9?9E0?9?9?9*9*9?9?9?9?9?9?9*9?9*9*9?9*9,28.93,23.19,71.3,0,0,0,0,0,0.5,0,0,9999,9999,9,999999999,0,0.0,0,0,0.0,0.0
2026,7,21,1,38,?9?9?9?9E0?9?9?9*9*9?9?9?9?9?9?9*9?9*9*9?9*9,28.93,23.19,71.3,0,0,0,0,0,0.5,0,0,9999,9999,9,999999999,0,0.0,0,0,0.0,0.0
2026,7,21,1,39,?9?9?9?9E0?9?9?9*9*9?9?9?9?9?9?9*9?9*9*9?9*9,28.93,23.19,71.3,0,0,0,0,0,0.5,0,0,9999,9999,9,999999999,0,0.0,0,0,0.0,0.0
2026,7,21,1,40,?9?9?9?9E0?9?9?9*9*9?9?9?9?9?9?9*9?9*9*9?9*9,28.93,23.19,71.3,0,0,0,0,0,0.5,0,0,9999,9999,9,999999999,0,0.0,0,0,0.0,0.0
2026,7,21,1,41,?9?9?9?9E0?9?9?9*9*9?9?9?9?9?9?9*9?9*9*9?9*9,28.93,23.19,71.3,0,0,0,0,0,0.5,0,0,9999,9999,9,999999999,0,0.0,0,0,0.0,0.0
2026,7,21,1,42,?9?9?9?9E0?9?9?9*9*9?9?9?9?9?9?9*9?9*9*9?9*9,28.93,23.19,71.3,0,0,0,0,0,0.5,0,0,9999,9999,9,999999999,0,0.0,0,0,0.0,0.0
2026,7,21,1,43,?9?9?9?9E0?9?9?9*9*9?9?9?9?9?9?9*9?9*9*9?9*9,28.93,23.19,71.3,0,0,0,0,0,0.5,0,0,9999,9999,9,999999999,0,0.0,0,0,0.0,0.0
2026,7,21,1,44,?9?9?9?9E0?9?9?9*9*9?9?9?9?9?9?9*9?9*9*9?9*9,28.93,23.19,71.3,0,0,0,0,0,0.5,0,0,9999,9999,9,999999999,0,0.0,0,0,0.0,0.0
2026,7,21,1,45,?9?9?9?9E0?9?9?9*9*9?9?9?9?9?9?9*9?9*9*9?9*9,28.93,23.19,71.3,0,0,0,0,0,0.5,0,0,9999,9999,9,999999999,0,0.0,0,0,0.0,0.0
2026,7,21,1,46,?9?9?9?9E0?9?9?9*9*9?9?9?9?9?9?9*9?9*9*9?9*9,28.93,23.19,71.3,0,0,0,0,0,0.5,0,0,9999,9999,9,999999999,0,0.0,0,0,0.0,0.0
2026,7,21,1,47,?9?9?9?9E0?9?9?9*9*9?9?9?9?9?9?9*9?9*9*9?9*9,28.93,23.19,71.3,0,0,0,0,0,0.5,0,0,9999,9999,9,999999999,0,0.0,0,0,0.0,0.0
2026,7,21,1,48,?9?9?9?9E0?9?9?9*9*9?9?9?9?9?9?9*9?9*9*9?9*9,28.93,23.19,71.3,0,0,0,0,0,0.5,0,0,9999,9999,9,999999999,0,0.0,0,0,0.0,0.0
2026,7,21,1,49,?9?9?9?9E0?9?9?9*9*9?9?9?9?9?9?9*9?9*9*9?9*9,28.93,23.19,71.3,0,0,0,0,0,0.5,0,0,9999,9999,9,999999999,0,0.0,0,0,0.0,0.0
2026,7,21,1,50,?9?9?9?9E0?9?9?9*9*9?9?9?9?9?9?9*9?9*9*9?9*9,28.93,23.19,71.3,0,0,0,0,0,0.5,0,0,9999,9999,9,999999999,0,0.0,0,0,0.0,0.0
2026,7,21,1,51,?9?9?9?9E0?9?9?9*9*9?9?9?9?9?9?9*9?9*9*9?9*9,28.93,23.19,71.3,0,0,0,0,0,0.5,0,0,9999,9999,9,999999999,0,0.0,0,0,0.0,0.0
2026,7,21,1,52,?9?9?9?9E0?9?9?9*9*9?9?9?9?9?9?9*9?9*9*9?9*9,28.93,23.19,71.3,0,0,0,0,0,0.5,0,0,9999,9999,9,999999999,0,0.0,0,0,0.0,0.0
2026,7,21,1,53,?9?9?9?9E0?9?9?9*9*9?9?9?9?9?9?9*9?9*9*9?9*9,28.93,23.19,71.3,0,0,0,0,0,0.5,0,0,9999,9999,9,999999999,0,0.0,0,0,0.0,0.0
2026,7,21,1,54,?9?9?9?9E0?9?9?9*9*9?9?9?9?9?9?9*9?9*9*9?9*9,28.93,23.19,71.3,0,0,0,0,0,0.5,0,0,9999,9999,9,999999999,0,0.0,0,0,0.0,0.0
2026,7,21,1,55,?9?9?9?9E0?9?9?9*9*9?9?9?9?9?9?9*9?9*9*9?9*9,28.93,23.19,71.3,0,0,0,0,0,0.5,0,0,9999,9999,9,999999999,0,0.0,0,0,0.0,0.0
2026,7,21,1,56,?9?9?9?9E0?9?9?9*9*9?9?9?9?9?9?9*9?9*9*9?9*9,28.93,23.19,71.3,0,0,0,0,0,0.5,0,0,9999,9999,9,999999999,0,0.0,0,0,0.0,0.0
2026,7,21,1,57,?9?9?9?9E0?9?9?9*9*9?9?9?9?9?9?9*9?9*9*9?9*9,28.93,23.19,71.3,0,0,0,0,0,0.5,0,0,9999,9999,9,999999999,0,0.0,0,0,0.0,0.0
2026,7,21,1,58,?9?9?9?9E0?9?9?9*9*9?9?9?9?9?9?9*9?9*9*9?9*9,28.93,23.19,71.3,0,0,0,0,0,0.5,0,0,9999,9999,9,999999999,0,0.0,0,0,0.0,0.0
2026,7,21,1,59,?9?9?9?9E0?9?9?9*9*9?9?9?9?9?9?9*9?9*9*9?9*9,28.93,23.19,71.3,0,0,0,0,0,0.5,0,0,9999,9999,9,999999999,0,0.0,0,0,0.0,0.0
2026,7,21,1,60,?9?9?9?9E0?9?9?9*9*9?9?9?9?9?9?9*9?9*9*9?9*9,28.93,23.19,71.3,0,0,0,0,0,0.5,0,0,9999,9999,9,999999999,0,0.0,0,0,0.0,0.0
2026,7,21,2,1,?9?9?9?9E0?9?9?9*9*9?9?9?9?9?9?9*9?9*9*9?9*9,28.93,23.19,71.3,0,0,0,0,0,0.5,0,0,9999,9999,9,999999999,0,0.0,0,0,0.0,0.0
2026,7,21,2,2,?9?9?9?9E0?9?9?9*9*9?9?9?9?9?9?9*9?9*9*9?9*9,28.93,23.19,71.3,0,0,0,0,0,0.5,0,0,9999,9999,9,999999999,0,0.0,0,0,0.0,0.0
2026,7,21,2,3,?9?9?9?9E0?9?9?9*9*9?9?9?9?9?9?9*9?9*9*9?9*9,28.93,23.19,71.3,0,0,0,0,0,0.5,0,0,9999,9999,9,999999999,0,0.0,0,0,0.0,0.0
2026,7,21,2,4,?9?9?9?9E0?9?9?9*9*9?9?9?9?9?9?9*9?9*9*9?9*9,28.93,23.19,71.3,0,0,0,0,0,0.5,0,0,9999,9999,9,999999999,0,0.0,0,0,0.0,0.0
2026,7,21,2,5,?9?9?9?9E0?9?9?9*9*9?9?9?9?9?9?9*9?9*9*9?9*9,28.93,23.19,71.3,0,0,0,0,0,0.5,0,0,9999,9999,9,999999999,0,0.0,0,0,0.0,0.0
2026,7,21,2,6,?9?9?9?9E0?9?9?9*9*9?9?9?9?9?9?9*9?9*9*9?9*9,28.93,23.19,71.3,0,0,0,0,0,0.5,0,0,9999,9999,9,999999999,0,0.0,0,0,0.0,0.0
2026,7,21,2,7,?9?9?9?9E0?9?9?9*9*9?9?9?9?9?9?9*9?9*9*9?9*9,28.93,23.19,71.3,0,0,0,0,0,0.5,0,0,9999,9999,9,999999999,0,0.0,0,0,0.0,0.0
2026,7,21,2,8,?9?9?9?9E0?9?9?9*9*9?9?9?9?9?9?9*9?9*9*9?9*9,28.93,23.19,71.3,0,0,0,0,0,0.5,0,0,9999,9999,9,999999999,0,0.0,0,0,0.0,0.0
2026,7,21,2,9,?9?9?9?9E0?9?9?9*9*9?9?9?9?9?9?9*9?9*9*9?9*9,28.93,23.19,71.3,0,0,0,0,0,0.5,0,0,9999,9999,9,999999999,0,0.0,0,0,0.0,0.0
2026,7,21,2,10,?9?9?9?9E0?9?9?9*9*9?9?9?9?9?9?9*9?9*9*9?9*9,28.93,23.19,71.3,0,0,0,0,0,0.5,0,0,9999,9999,9,999999999,0,0.0,0,0,0.0,0.0
2026,7,21,2,11,?9?9?9?9E0?9?9?9*9*9?9?9?9?9?9?9*9?9*9*9?9*9,28.93,23.19,71.3,0,0,0,0,0,0.5,0,0,9999,9999,9,999999999,0,0.0,0,0,0.0,0.0
2026,7,21,2,12,?9?9?9?9E0?9?9?9*9*9?9?9?9?9?9?9*9?9*9*9?9*9,28.93,23.19,71.3,0,0,0,0,0,0.5,0,0,9999,9999,9,999999999,0,0.0,0,0,0.0,0.0
2026,7,21,2,13,?9?9?9?9E0?9?9?9*9*9?9?9?9?9?9?9*9?9*9*9?9*9,28.93,23.19,71.3,0,0,0,0,0,0.5,0,0,9999,9999,9,999999999,0,0.0,0,0,0.0,0.0
2026,7,21,2,14,?9?9?9?9E0?9?9?9*9*9?9?9?9?9?9?9*9?9*9*9?9*9,28.93,23.19,71.3,0,0,0,0,0,0.5,0,0,9999,9999,9,999999999,0,0.0,0,0,0.0,0.0
2026,7,21,2,15,?9?9?9?9E0?9?9?9*9*9?9?9?9?9?9?9*9?9*9*9?9*9,28.93,23.19,71.3,0,0,0,0,0,0.5,0,0,9999,9999,9,999999999,0,0.0,0,0,0.0,0.0
2026,7,21,2,16,?9?9?9?9E0?9?9?9*9*9?9?9?9?9?9?9*9?9*9*9?9*9,28.93,23.19,71.3,0,0,0,0,0,0.5,0,0,9999,9999,9,999999999,0,0.0,0,0,0.0,0.0
2026,7,21,2,17,?9?9?9?9E0?9?9?9*9*9?9?9?9?9?9?9*9?9*9*9?9*9,28.93,23.19,71.3,0,0,0,0,0,0.5,0,0,9999,9999,9,999999999,0,0.0,0,0,0.0,0.0
2026,7,21,2,18,?9?9?9?9E0?9?9?9*9*9?9?9?9?9?9?9*9?9*9*9?9*9,28.93,23.19,71.3,0,0,0,0,0,0.5,0,0,9999,9999,9,999999999,0,0.0,0,0,0.0,0.0
2026,7,21,2,19,?9?9?9?9E0?9?9?9*9*9?9?9?9?9?9?9*9?9*9*9?9*9,28.93,23.19,71.3,0,0,0,0,0,0.5,0,0,9999,9999,9,999999999,0,0.0,0,0,0.0,0.0
2026,7,21,2,20,?9?9?9?9E0?9?9?9*9*9?9?9?9?9?9?9*9?9*9*9?9*9,28.93,23.19,71.3,0,0,0,0,0,0.5,0,0,9999,9999,9,999999999,0,0.0,0,0,0.0,0.0
2026,7,21,2,21,?9?9?9?9E0?9?9?9*9*9?9?9?9?9?9?9*9?9*9*9?9*9,28.93,23.19,71.3,0,0,0,0,0,0.5,0,0,9999,9999,9,999999999,0,0.0,0,0,0.0,0.0
2026,7,21,2,22,?9?9?9?9E0?9?9?9*9*9?9?9?9?9?9?9*9?9*9*9?9*9,28.93,23.19,71.3,0,0,0,0,0,0.5,0,0,9999,9999,9,999999999,0,0.0,0,0,0.0,0.0
2026,7,21,2,23,?9?9?9?9E0?9?9?9*9*9?9?9?9?9?9?9*9?9*9*9?9*9,28.93,23.19,71.3,0,0,0,0,0,0.5,0,0,9999,9999,9,999999999,0,0.0,0,0,0.0,0.0
2026,7,21,2,24,?9?9?9?9E0?9?9?9*9*9?9?9?9?9?9?9*9?9*9*9?9*9,28.93,23.19,71.3,0,0,0,0,0,0.5,0,0,9999,9999,9,999999999,0,0.0,0,0,0.0,0.0
2026,7,21,2,25,?9?9?9?9E0?9?9?9*9*9?9?9?9?9?9?9*9?9*9*9?9*9,28.93,23.19,71.3,0,0,0,0,0,0.5,0,0,9999,9999,9,999999999,0,0.0,0,0,0.0,0.0
2026,7,21,2,26,?9?9?9?9E0?9?9?9*9*9?9?9?9?9?9?9*9?9*9*9?9*9,28.93,23.19,71.3,0,0,0,0,0,0.5,0,0,9999,9999,9,999999999,0,0.0,0,0,0.0,0.0
2026,7,21,2,27,?9?9?9?9E0?9?9?9*9*9?9?9?9?9?9?9*9?9*9*9?9*9,28.93,23.19,71.3,0,0,0,0,0,0.5,0,0,9999,9999,9,999999999,0,0.0,0,0,0.0,0.0
2026,7,21,2,28,?9?9?9?9E0?9?9?9*9*9?9?9?9?9?9?9*9?9*9*9?9*9,28.93,23.19,71.3,0,0,0,0,0,0.5,0,0,9999,9999,9,999999999,0,0.0,0,0,0.0,0.0
2026,7,21,2,29,?9?9?9?9E0?9?9?9*9*9?9?9?9?9?9?9*9?9*9*9?9*9,28.93,23.19,71.3,0,0,0,0,0,0.5,0,0,9999,9999,9,999999999,0,0.0,0,0,0.0,0.0
2026,7,21,2,30,?9?9?9?9E0?9?9?9*9*9?9?9?9?9?9?9*9?9*9*9?9*9,28.93,23.19,71.3,0,0,0,0,0,0.5,0,0,9999,9999,9,999999999,0,0.0,0,0,0.0,0.0
2026,7,21,2,31,?9?9?9?9E0?9?9?9*9*9?9?9?9?9?9?9*9?9*9*9?9*9,28.93,23.19,71.3,0,0,0,0,0,0.5,0,0,9999,9999,9,999999999,0,0.0,0,0,0.0,0.0
2026,7,21,2,32,?9?9?9?9E0?9?9?9*9*9?9?9?9?9?9?9*9?9*9*9?9*9,28.93,23.19,71.3,0,0,0,0,0,0.5,0,0,9999,9999,9,999999999,0,0.0,0,0,0.0,0.0
2026,7,21,2,33,?9?9?9?9E0?9?9?9*9*9?9?9?9?9?9?9*9?9*9*9?9*9,28.93,23.19,71.3,0,0,0,0,0,0.5,0,0,9999,9999,9,999999999,0,0.0,0,0,0.0,0.0
2026,7,21,2,34,?9?9?9?9E0?9?9?9*9*9?9?9?9?9?9?9*9?9*9*9?9*9,28.93,23.19,71.3,0,0,0,0,0,0.5,0,0,9999,9999,9,999999999,0,0.0,0,0,0.0,0.0
2026,7,21,2,35,?9?9?9?9E0?9?9?9*9*9?9?9?9?9?9?9*9?9*9*9?9*9,28.93,23.19,71.3,0,0,0,0,0,0.5,0,0,9999,9999,9,999999999,0,0.0,0,0,0.0,0.0
2026,7,21,2,36,?9?9?9?9E0?9?9?9*9*9?9?9?9?9?9?9*9?9*9*9?9*9,28.93,23.19,71.3,0,0,0,0,0,0.5,0,0,9999,9999,9,999999999,0,0.0,0,0,0.0,0.0
2026,7,21,2,37,?9?9?9?9E0?9?9?9*9*9?9?9?9?9?9?9*9?9*9*9?9*9,28.93,23.19,71.3,0,0,0,0,0,0.5,0,0,9999,9999,9,999999999,0,0.0,0,0,0.0,0.0
2026,7,21,2,38,?9?9?9?9E0?9?9?9*9*9?9?9?9?9?9?9*9?9*9*9?9*9,28.93,23.19,71.3,0,0,0,0,0,0.5,0,0,9999,9999,9,999999999,0,0.0,0,0,0.0,0.0
2026,7,21,2,39,?9?9?9?9E0?9?9?9*9*9?9?9?9?9?9?9*9?9*9*9?9*9,28.93,23.19,71.3,0,0,0,0,0,0.5,0,0,9999,9999,9,999999999,0,0.0,0,0,0.0,0.0
2026,7,21,2,40,?9?9?9?9E0?9?9?9*9*9?9?9?9?9?9?9*9?9*9*9?9*9,28.93,23.19,71.3,0,0,0,0,0,0.5,0,0,9999,9999,9,999999999,0,0.0,0,0,0.0,0.0
2026,7,21,2,41,?9?9?9?9E0?9?9?9*9*9?9?9?9?9?9?9*9?9*9*9?9*9,28.93,23.19,71.3,0,0,0,0,0,0.5,0,0,9999,9999,9,999999999,0,0.0,0,0,0.0,0.0
2026,7,21,2,42,?9?9?9?9E0?9?9?9*9*9?9?9?9?9?9?9*9?9*9*9?9*9,28.93,23.19,71.3,0,0,0,0,0,0.5,0,0,9999,9999,9,999999999,0,0.0,0,0,0.0,0.0
2026,7,21,2,43,?9?9?9?9E0?9?9?9*9*9?9?9?9?9?9?9*9?9*9*9?9*9,28.93,23.19,71.3,0,0,0,0,0,0.5,0,0,9999,9999,9,999999999,0,0.0,0,0,0.0,0.0
2026,7,21,2,44,?9?9?9?9E0?9?9?9*9*9?9?9?9?9?9?9*9?9*9*9?9*9,28.93,23.19,71.3,0,0,0,0,0,0.5,0,0,9999,9999,9,999999999,0,0.0,0,0,0.0,0.0
2026,7,21,2,45,?9?9?9?9E0?9?9?9*9*9?9?9?9?9?9?9*9?9*9*9?9*9,28.93,23.19,71.3,0,0,0,0,0,0.5,0,0,9999,9999,9,999999999,0,0.0,0,0,0.0,0.0
2026,7,21,2,46,?9?9?9?9E0?9?9?9*9*9?9?9?9?9?9?9*9?9*9*9?9*9,28.93,23.19,71.3,0,0,0,0,0,0.5,0,0,9999,9999,9,999999999,0,0.0,0,0,0.0,0.0
2026,7,21,2,47,?9?9?9?9E0?9?9?9*9*9?9?9?9?9?9?9*9?9*9*9?9*9,28.93,23.19,71.3,0,0,0,0,0,0.5,0,0,9999,9999,9,999999999,0,0.0,0,0,0.0,0.0
2026,7,21,2,48,?9?9?9?9E0?9?9?9*9*9?9?9?9?9?9?9*9?9*9*9?9*9,28.93,23.19,71.3,0,0,0,0,0,0.5,0,0,9999,9999,9,999999999,0,0.0,0,0,0.0,0.0
2026,7,21,2,49,?9?9?9?9E0?9?9?9*9*9?9?9?9?9?9?9*9?9*9*9?9*9,28.93,23.19,71.3,0,0,0,0,0,0.5,0,0,9999,9999,9,999999999,0,0.0,0,0,0.0,0.0
2026,7,21,2,50,?9?9?9?9E0?9?9?9*9*9?9?9?9?9?9?9*9?9*9*9?9*9,28.93,23.19,71.3,0,0,0,0,0,0.5,0,0,9999,9999,9,999999999,0,0.0,0,0,0.0,0.0
2026,7,21,2,51,?9?9?9?9E0?9?9?9*9*9?9?9?9?9?9?9*9?9*9*9?9*9,28.93,23.19,71.3,0,0,0,0,0,0.5,0,0,9999,9999,9,999999999,0,0.0,0,0,0.0,0.0
2026,7,21,2,52,?9?9?9?9E0?9?9?9*9*9?9?9?9?9?9?9*9?9*9*9?9*9,28.93,23.19,71.3,0,0,0,0,0,0.5,0,0,9999,9999,9,999999999,0,0.0,0,0,0.0,0.0
2026,7,21,2,53,?9?9?9?9E0?9?9?9*9*9?9?9?9?9?9?9*9?9*9*9?9*9,28.93,23.19,71.3,0,0,0,0,0,0.5,0,0,9999,9999,9,999999999,0,0.0,0,0,0.0,0.0
2026,7,21,2,54,?9?9?9?9E0?9?9?9*9*9?9?9?9?9?9?9*9?9*9*9?9*9,28.93,23.19,71.3,0,0,0,0,0,0.5,0,0,9999,9999,9,999999999,0,0.0,0,0,0.0,0.0
2026,7,21,2,55,?9?9?9?9E0?9?9?9*9*9?9?9?9?9?9?9*9?9*9*9?9*9,28.93,23.19,71.3,0,0,0,0,0,0.5,0,0,9999,9999,9,999999999,0,0.0,0,0,0.0,0.0
2026,7,21,2,56,?9?9?9?9E0?9?9?9*9*9?9?9?9?9?9?9*9?9*9*9?9*9,28.93,23.19,71.3,0,0,0,0,0,0.5,0,0,9999,9999,9,999999999,0,0.0,0,0,0.0,0.0
2026,7,21,2,57,?9?9?9?9E0?9?9?9*9*9?9?9?9?9?9?9*9?9*9*9?9*9,28.93,23.19,71.3,0,0,0,0,0,0.5,0,0,9999,9999,9,999999999,0,0.0,0,0,0.0,0.0
2026,7,21,2,58,?9?9?9?9E0?9?9?9*9*9?9?9?9?9?9?9*9?9*9*9?9*9,28.93,23.19,71.3,0,0,0,0,0,0.5,0,0,9999,9999,9,999999999,0,0.0,0,0,0.0,0.0
2026,7,21,2,59,?9?9?9?9E0?9?9?9*9*9?9?9?9?9?9?9*9?9*9*9?9*9,28.93,23.19,71.3,0,0,0,0,0,0.5,0,0,9999,9999,9,999999999,0,0.0,0,0,0.0,0.0
2026,7,21,2,60,?9?9?9?9E0?9?9?9*9*9?9?9?9?9?9?9*9?9*9*9?9*9,28.93,23.19,71.3,0,0,0,0,0,0.5,0,0,9999,9999,9,999999999,0,0.0,0,0,0.0,0.0
2026,7,21,3,1,?9?9?9?9E0?9?9?9*9*9?9?9?9?9?9?9*9?9*9*9?9*9,28.93,23.19,71.3,0,0,0,0,0,0.5,0,0,9999,9999,9,999999999,0,0.0,0,0,0.0,0.0
2026,7,21,3,2,?9?9?9?9E0?9?9?9*9*9?9?9?9?9?9?9*9?9*9*9?9*9,28.93,23.19,71.3,0,0,0,0,0,0.5,0,0,9999,9999,9,999999999,0,0.0,0,0,0.0,0.0
2026,7,21,3,3,?9?9?9?9E0?9?9?9*9*9?9?9?9?9?9?9*9?9*9*9?9*9,28.93,23.19,71.3,0,0,0,0,0,0.5,0,0,9999,9999,9,999999999,0,0.0,0,0,0.0,0.0
2026,7,21,3,4,?9?9?9?9E0?9?9?9*9*9?9?9?9?9?9?9*9?9*9*9?9*9,28.93,23.19,71.3,0,0,0,0,0,0.5,0,0,9999,9999,9,999999999,0,0.0,0,0,0.0,0.0
2026,7,21,3,5,?9?9?9?9E0?9?9?9*9*9?9?9?9?9?9?9*9?9*9*9?9*9,28.93,23.19,71.3,0,0,0,0,0,0.5,0,0,9999,9999,9,999999999,0,0.0,0,0,0.0,0.0
2026,7,21,3,6,?9?9?9?9E0?9?9?9*9*9?9?9?9?9?9?9*9?9*9*9?9*9,28.93,23.19,71.3,0,0,0,0,0,0.5,0,0,9999,9999,9,999999999,0,0.0,0,0,0.0,0.0
2026,7,21,3,7,?9?9?9?9E0?9?9?9*9*9?9?9?9?9?9?9*9?9*9*9?9*9,28.93,23.19,71.3,0,0,0,0,0,0.5,0,0,9999,9999,9,999999999,0,0.0,0,0,0.0,0.0
2026,7,21,3,8,?9?9?9?9E0?9?9?9*9*9?9?9?9?9?9?9*9?9*9*9?9*9,28.93,23.19,71.3,0,0,0,0,0,0.5,0,0,9999,9999,9,999999999,0,0.0,0,0,0.0,0.0
2026,7,21,3,9,?9?9?9?9E0?9?9?9*9*9?9?9?9?9?9?9*9?9*9*9?9*9,28.93,23.19,71.3,0,0,0,0,0,0.5,0,0,9999,9999,9,999999999,0,0.0,0,0,0.0,0.0
2026,7,21,3,10,?9?9?9?9E0?9?9?9*9*9?9?9?9?9?9?9*9?9*9*9?9*9,28.93,23.19,71.3,0,0,0,0,0,0.5,0,0,9999,9999,9,999999999,0,0.0,0,0,0.0,0.0
2026,7,21,3,11,?9?9?9?9E0?9?9?9*9*9?9?9?9?9?9?9*9?9*9*9?9*9,28.93,23.19,71.3,0,0,0,0,0,0.5,0,0,9999,9999,9,999999999,0,0.0,0,0,0.0,0.0
2026,7,21,3,12,?9?9?9?9E0?9?9?9*9*9?9?9?9?9?9?9*9?9*9*9?9*9,28.93,23.19,71.3,0,0,0,0,0,0.5,0,0,9999,9999,9,999999999,0,0.0,0,0,0.0,0.0
2026,7,21,3,13,?9?9?9?9E0?9?9?9*9*9?9?9?9?9?9?9*9?9*9*9?9*9,28.93,23.19,71.3,0,0,0,0,0,0.5,0,0,9999,9999,9,999999999,0,0.0,0,0,0.0,0.0
2026,7,21,3,14,?9?9?9?9E0?9?9?9*9*9?9?9?9?9?9?9*9?9*9*9?9*9,28.93,23.19,71.3,0,0,0,0,0,0.5,0,0,9999,9999,9,999999999,0,0.0,0,0,0.0,0.0
2026,7,21,3,15,?9?9?9?9E0?9?9?9*9*9?9?9?9?9?9?9*9?9*9*9?9*9,28.93,23.19,71.3,0,0,0,0,0,0.5,0,0,9999,9999,9,999999999,0,0.0,0,0,0.0,0.0
2026,7,21,3,16,?9?9?9?9E0?9?9?9*9*9?9?9?9?9?9?9*9?9*9*9?9*9,28.93,23.19,71.3,0,0,0,0,0,0.5,0,0,9999,9999,9,999999999,0,0.0,0,0,0.0,0.0
2026,7,21,3,17,?9?9?9?9E0?9?9?9*9*9?9?9?9?9?9?9*9?9*9*9?9*9,28.93,23.19,71.3,0,0,0,0,0,0.5,0,0,9999,9999,9,999999999,0,0.0,0,0,0.0,0.0
2026,7,21,3,18,?9?9?9?9E0?9?9?9*9*9?9?9?9?9?9?9*9?9*9*9?9*9,28.93,23.19,71.3,0,0,0,0,0,0.5,0,0,9999,9999,9,999999999,0,0.0,0,0,0.0,0.0
2026,7,21,3,19,?9?9?9?9E0?9?9?9*9*9?9?9?9?9?9?9*9?9*9*9?9*9,28.93,23.19,71.3,0,0,0,0,0,0.5,0,0,9999,9999,9,999999999,0,0.0,0,0,0.0,0.0
2026,7,21,3,20,?9?9?9?9E0?9?9?9*9*9?9?9?9?9?9?9*9?9*9*9?9*9,28.93,23.19,71.3,0,0,0,0,0,0.5,0,0,9999,9999,9,999999999,0,0.0,0,0,0.0,0.0
2026,7,21,3,21,?9?9?9?9E0?9?9?9*9*9?9?9?9?9?9?9*9?9*9*9?9*9,28.93,23.19,71.3,0,0,0,0,0,0.5,0,0,9999,9999,9,999999999,0,0.0,0,0,0.0,0.0
2026,7,21,3,22,?9?9?9?9E0?9?9?9*9*9?9?9?9?9?9?9*9?9*9*9?9*9,28.93,23.19,71.3,0,0,0,0,0,0.5,0,0,9999,9999,9,999999999,0,0.0,0,0,0.0,0.0
2026,7,21,3,23,?9?9?9?9E0?9?9?9*9*9?9?9?9?9?9?9*9?9*9*9?9*9,28.93,23.19,71.3,0,0,0,0,0,0.5,0,0,9999,9999,9,999999999,0,0.0,0,0,0.0,0.0
2026,7,21,3,24,?9?9?9?9E0?9?9?9*9*9?9?9?9?9?9?9*9?9*9*9?9*9,28.93,23.19,71.3,0,0,0,0,0,0.5,0,0,9999,9999,9,999999999,0,0.0,0,0,0.0,0.0
2026,7,21,3,25,?9?9?9?9E0?9?9?9*9*9?9?9?9?9?9?9*9?9*9*9?9*9,28.93,23.19,71.3,0,0,0,0,0,0.5,0,0,9999,9999,9,999999999,0,0.0,0,0,0.0,0.0
2026,7,21,3,26,?9?9?9?9E0?9?9?9*9*9?9?9?9?9?9?9*9?9*9*9?9*9,28.93,23.19,71.3,0,0,0,0,0,0.5,0,0,9999,9999,9,999999999,0,0.0,0,0,0.0,0.0
2026,7,21,3,27,?9?9?9?9E0?9?9?9*9*9?9?9?9?9?9?9*9?9*9*9?9*9,28.93,23.19,71.3,0,0,0,0,0,0.5,0,0,9999,9999,9,999999999,0,0.0,0,0,0.0,0.0
2026,7,21,3,28,?9?9?9?9E0?9?9?9*9*9?9?9?9?9?9?9*9?9*9*9?9*9,28.93,23.19,71.3,0,0,0,0,0,0.5,0,0,9999,9999,9,999999999,0,0.0,0,0,0.0,0.0
2026,7,21,3,29,?9?9?9?9E0?9?9?9*9*9?9?9?9?9?9?9*9?9*9*9?9*9,28.93,23.19,71.3,0,0,0,0,0,0.5,0,0,9999,9999,9,999999999,0,0.0,0,0,0.0,0.0
2026,7,21,3,30,?9?9?9?9E0?9?9?9*9*9?9?9?9?9?9?9*9?9*9*9?9*9,28.93,23.19,71.3,0,0,0,0,0,0.5,0,0,9999,9999,9,999999999,0,0.0,0,0,0.0,0.0
2026,7,21,3,31,?9?9?9?9E0?9?9?9*9*9?9?9?9?9?9?9*9?9*9*9?9*9,28.93,23.19,71.3,0,0,0,0,0,0.5,0,0,9999,9999,9,999999999,0,0.0,0,0,0.0,0.0
2026,7,21,3,32,?9?9?9?9E0?9?9?9*9*9?9?9?9?9?9?9*9?9*9*9?9*9,28.93,23.19,71.3,0,0,0,0,0,0.5,0,0,9999,9999,9,999999999,0,0.0,0,0,0.0,0.0
2026,7,21,3,33,?9?9?9?9E0?9?9?9*9*9?9?9?9?9?9?9*9?9*9*9?9*9,28.93,23.19,71.3,0,0,0,0,0,0.5,0,0,9999,9999,9,999999999,0,0.0,0,0,0.0,0.0
2026,7,21,3,34,?9?9?9?9E0?9?9?9*9*9?9?9?9?9?9?9*9?9*9*9?9*9,28.93,23.19,71.3,0,0,0,0,0,0.5,0,0,9999,9999,9,999999999,0,0.0,0,0,0.0,0.0
2026,7,21,3,35,?9?9?9?9E0?9?9?9*9*9?9?9?9?9?9?9*9?9*9*9?9*9,28.93,23.19,71.3,0,0,0,0,0,0.5,0,0,9999,9999,9,999999999,0,0.0,0,0,0.0,0.0
2026,7,21,3,36,?9?9?9?9E0?9?9?9*9*9?9?9?9?9?9?9*9?9*9*9?9*9,28.93,23.19,71.3,0,0,0,0,0,0.5,0,0,9999,9999,9,999999999,0,0.0,0,0,0.0,0.0
2026,7,21,3,37,?9?9?9?9E0?9?9?9*9*9?9?9?9?9?9?9*9?9*9*9?9*9,28.93,23.19,71.3,0,0,0,0,0,0.5,0,0,9999,9999,9,999999999,0,0.0,0,0,0.0,0.0
2026,7,21,3,38,?9?9?9?9E0?9?9?9*9*9?9?9?9?9?9?9*9?9*9*9?9*9,28.93,23.19,71.3,0,0,0,0,0,0.5,0,0,9999,9999,9,999999999,0,0.0,0,0,0.0,0.0
2026,7,21,3,39,?9?9?9?9E0?9?9?9*9*9?9?9?9?9?9?9*9?9*9*9?9*9,28.93,23.19,71.3,0,0,0,0,0,0.5,0,0,9999,9999,9,999999999,0,0.0,0,0,0.0,0.0
2026,7,21,3,40,?9?9?9?9E0?9?9?9*9*9?9?9?9?9?9?9*9?9*9*9?9*9,28.93,23.19,71.3,0,0,0,0,0,0.5,0,0,9999,9999,9,999999999,0,0.0,0,0,0.0,0.0
2026,7,21,3,41,?9?9?9?9E0?9?9?9*9*9?9?9?9?9?9?9*9?9*9*9?9*9,28.93,23.19,71.3,0,0,0,0,0,0.5,0,0,9999,9999,9,999999999,0,0.0,0,0,0.0,0.0
2026,7,21,3,42,?9?9?9?9E0?9?9?9*9*9?9?9?9?9?9?9*9?9*9*9?9*9,28.93,23.19,71.3,0,0,0,0,0,0.5,0,0,9999,9999,9,999999999,0,0.0,0,0,0.0,0.0
2026,7,21,3,43,?9?9?9?9E0?9?9?9*9*9?9?9?9?9?9?9*9?9*9*9?9*9,28.93,23.19,71.3,0,0,0,0,0,0.5,0,0,9999,9999,9,999999999,0,0.0,0,0,0.0,0.0
2026,7,21,3,44,?9?9?9?9E0?9?9?9*9*9?9?9?9?9?9?9*9?9*9*9?9*9,28.93,23.19,71.3,0,0,0,0,0,0.5,0,0,9999,9999,9,999999999,0,0.0,0,0,0.0,0.0
2026,7,21,3,45,?9?9?9?9E0?9?9?9*9*9?9?9?9?9?9?9*9?9*9*9?9*9,28.93,23.19,71.3,0,0,0,0,0,0.5,0,0,9999,9999,9,999999999,0,0.0,0,0,0.0,0.0
2026,7,21,3,46,?9?9?9?9E0?9?9?9*9*9?9?9?9?9?9?9*9?9*9*9?9*9,28.93,23.19,71.3,0,0,0,0,0,0.5,0,0,9999,9999,9,999999999,0,0.0,0,0,0.0,0.0
2026,7,21,3,47,?9?9?9?9E0?9?9?9*9*9?9?9?9?9?9?9*9?9*9*9?9*9,28.93,23.19,71.3,0,0,0,0,0,0.5,0,0,9999,9999,9,999999999,0,0.0,0,0,0.0,0.0
2026,7,21,3,48,?9?9?9?9E0?9?9?9*9*9?9?9?9?9?9?9*9?9*9*9?9*9,28.93,23.19,71.3,0,0,0,0,0,0.5,0,0,9999,9999,9,999999999,0,0.0,0,0,0.0,0.0
2026,7,21,3,49,?9?9?9?9E0?9?9?9*9*9?9?9?9?9?9?9*9?9*9*9?9*9,28.93,23.19,71.3,0,0,0,0,0,0.5,0,0,9999,9999,9,999999999,0,0.0,0,0,0.0,0.0
2026,7,21,3,50,?9?9?9?9E0?9?9?9*9*9?9?9?9?9?9?9*9?9*9*9?9*9,28.93,23.19,71.3,0,0,0,0,0,0.5,0,0,9999,9999,9,999999999,0,0.0,0,0,0.0,0.0
2026,7,21,3,51,?9?9?9?9E0?9?9?9*9*9?9?9?9?9?9?9*9?9*9*9?9*9,28.93,23.19,71.3,0,0,0,0,0,0.5,0,0,9999,9999,9,999999999,0,0.0,0,0,0.0,0.0
2026,7,21,3,52,?9?9?9?9E0?9?9?9*9*9?9?9?9?9?9?9*9?9*9*9?9*9,28.93,23.19,71.3,0,0,0,0,0,0.5,0,0,9999,9999,9,999999999,0,0.0,0,0,0.0,0.0
2026,7,21,3,53,?9?9?9?9E0?9?9?9*9*9?9?9?9?9?9?9*9?9*9*9?9*9,28.93,23.19,71.3,0,0,0,0,0,0.5,0,0,9999,9999,9,999999999,0,0.0,0,0,0.0,0.0
2026,7,21,3,54,?9?9?9?9E0?9?9?9*9*9?9?9?9?9?9?9*9?9*9*9?9*9,28.93,23.19,71.3,0,0,0,0,0,0.5,0,0,9999,9999,9,999999999,0,0.0,0,0,0.0,0.0
2026,7,21,3,55,?9?9?9?9E0?9?9?9*9*9?9?9?9?9?9?9*9?9*9*9?9*9,28.93,23.19,71.3,0,0,0,0,0,0.5,0,0,9999,9999,9,999999999,0,0.0,0,0,0.0,0.0
2026,7,21,3,56,?9?9?9?9E0?9?9?9*9*9?9?9?9?9?9?9*9?9*9*9?9*9,28.93,23.19,71.3,0,0,0,0,0,0.5,0,0,9999,9999,9,999999999,0,0.0,0,0,0.0,0.0
2026,7,21,3,57,?9?9?9?9E0?9?9?9*9*9?9?9?9?9?9?9*9?9*9*9?9*9,28.93,23.19,71.3,0,0,0,0,0,0.5,0,0,9999,9999,9,999999999,0,0.0,0,0,0.0,0.0
2026,7,21,3,58,?9?9?9?9E0?9?9?9*9*9?9?9?9?9?9?9*9?9*9*9?9*9,28.93,23.19,71.3,0,0,0,0,0,0.5,0,0,9999,9999,9,999999999,0,0.0,0,0,0.0,0.0
2026,7,21,3,59,?9?9?9?9E0?9?9?9*9*9?9?9?9?9?9?9*9?9*9*9?9*9,28.93,23.19,71.3,0,0,0,0,0,0.5,0,0,9999,9999,9,999999999,0,0.0,0,0,0.0,0.0
2026,7,21,3,60,?9?9?9?9E0?9?9?9*9*9?9?9?9?9?9?9*9?9*9*9?9*9,28.93,23.19,71.3,0,0,0,0,0,0.5,0,0,9999,9999,9,999999999,0,0.0,0,0,0.0,0.0
2026,7,21,4,1,?9?9?9?9E0?9?9?9*9*9?9?9?9?9?9?9*9?9*9*9?9*9,28.93,23.19,71.3,0,0,0,0,0,0.5,0,0,9999,9999,9,999999999,0,0.0,0,0,0.0,0.0
2026,7,21,4,2,?9?9?9?9E0?9?9?9*9*9?9?9?9?9?9?9*9?9*9*9?9*9,28.93,23.19,71.3,0,0,0,0,0,0.5,0,0,9999,9999,9,999999999,0,0.0,0,0,0.0,0.0
2026,7,21,4,3,?9?9?9?9E0?9?9?9*9*9?9?9?9?9?9?9*9?9*9*9?9*9,28.93,23.19,71.3,0,0,0,0,0,0.5,0,0,9999,9999,9,999999999,0,0.0,0,0,0.0,0.0
2026,7,21,4,4,?9?9?9?9E0?9?9?9*9*9?9?9?9?9?9?9*9?9*9*9?9*9,28.93,23.19,71.3,0,0,0,0,0,0.5,0,0,9999,9999,9,999999999,0,0.0,0,0,0.0,0.0
2026,7,21,4,5,?9?9?9?9E0?9?9?9*9*9?9?9?9?9?9?9*9?9*9*9?9*9,28.93,23.19,71.3,0,0,0,0,0,0.5,0,0,9999,9999,9,999999999,0,0.0,0,0,0.0,0.0
2026,7,21,4,6,?9?9?9?9E0?9?9?9*9*9?9?9?9?9?9?9*9?9*9*9?9*9,28.93,23.19,71.3,0,0,0,0,0,0.5,0,0,9999,9999,9,999999999,0,0.0,0,0,0.0,0.0
2026,7,21,4,7,?9?9?9?9E0?9?9?9*9*9?9?9?9?9?9?9*9?9*9*9?9*9,28.93,23.19,71.3,0,0,0,0,0,0.5,0,0,9999,9999,9,999999999,0,0.0,0,0,0.0,0.0
2026,7,21,4,8,?9?9?9?9E0?9?9?9*9*9?9?9?9?9?9?9*9?9*9*9?9*9,28.93,23.19,71.3,0,0,0,0,0,0.5,0,0,9999,9999,9,999999999,0,0.0,0,0,0.0,0.0
2026,7,21,4,9,?9?9?9?9E0?9?9?9*9*9?9?9?9?9?9?9*9?9*9*9?9*9,28.93,23.19,71.3,0,0,0,0,0,0.5,0,0,9999,9999,9,999999999,0,0.0,0,0,0.0,0.0
2026,7,21,4,10,?9?9?9?9E0?9?9?9*9*9?9?9?9?9?9?9*9?9*9*9?9*9,28.93,23.19,71.3,0,0,0,0,0,0.5,0,0,9999,9999,9,999999999,0,0.0,0,0,0.0,0.0
2026,7,21,4,11,?9?9?9?9E0?9?9?9*9*9?9?9?9?9?9?9*9?9*9*9?9*9,28.93,23.19,71.3,0,0,0,0,0,0.5,0,0,9999,9999,9,999999999,0,0.0,0,0,0.0,0.0
2026,7,21,4,12,?9?9?9?9E0?9?9?9*9*9?9?9?9?9?9?9*9?9*9*9?9*9,28.93,23.19,71.3,0,0,0,0,0,0.5,0,0,9999,9999,9,999999999,0,0.0,0,0,0.0,0.0
2026,7,21,4,13,?9?9?9?9E0?9?9?9*9*9?9?9?9?9?9?9*9?9*9*9?9*9,28.93,23.19,71.3,0,0,0,0,0,0.5,0,0,9999,9999,9,999999999,0,0.0,0,0,0.0,0.0
2026,7,21,4,14,?9?9?9?9E0?9?9?9*9*9?9?9?9?9?9?9*9?9*9*9?9*9,28.93,23.19,71.3,0,0,0,0,0,0.5,0,0,9999,9999,9,999999999,0,0.0,0,0,0.0,0.0
2026,7,21,4,15,?9?9?9?9E0?9?9?9*9*9?9?9?9?9?9?9*9?9*9*9?9*9,28.93,23.19,71.3,0,0,0,0,0,0.5,0,0,9999,9999,9,999999999,0,0.0,0,0,0.0,0.0
2026,7,21,4,16,?9?9?9?9E0?9?9?9*9*9?9?9?9?9?9?9*9?9*9*9?9*9,28.93,23.19,71.3,0,0,0,0,0,0.5,0,0,9999,9999,9,999999999,0,0.0,0,0,0.0,0.0
2026,7,21,4,17,?9?9?9?9E0?9?9?9*9*9?9?9?9?9?9?9*9?9*9*9?9*9,28.93,23.19,71.3,0,0,0,0,0,0.5,0,0,9999,9999,9,999999999,0,0.0,0,0,0.0,0.0
2026,7,21,4,18,?9?9?9?9E0?9?9?9*9*9?9?9?9?9?9?9*9?9*9*9?9*9,29.02,23.25,71.2,0,0,0,0,0,0.5,0,0,9999,9999,9,999999999,0,0.0,0,0,0.0,0.0
2026,7,21,4,19,?9?9?9?9E0?9?9?9*9*9?9?9?9?9?9?9*9?9*9*9?9*9,29.14,23.35,71.0,0,0,0,0,0,0.5,0,0,9999,9999,9,999999999,0,0.0,0,0,0.0,0.0
2026,7,21,4,20,?9?9?9?9E0?9?9?9*9*9?9?9?9?9?9?9*9?9*9*9?9*9,29.18,23.10,69.6,0,0,0,0,0,0.5,0,0,9999,9999,9,999999999,0,0.0,0,0,0.0,0.0
2026,7,21,4,21,?9?9?9?9E0?9?9?9*9*9?9?9?9?9?9?9*9?9*9*9?9*9,29.22,23.13,69.6,0,0,0,0,0,0.5,0,0,9999,9999,9,999999999,0,0.0,0,0,0.0,0.0
2026,7,21,4,22,?9?9?9?9E0?9?9?9*9*9?9?9?9?9?9?9*9?9*9*9?9*9,29.32,23.16,69.2,0,0,0,0,0,0.5,0,0,9999,9999,9,999999999,0,0.0,0,0,0.0,0.0
2026,7,21,4,23,?9?9?9?9E0?9?9?9*9*9?9?9?9?9?9?9*9?9*9*9?9*9,29.33,22.98,68.3,0,0,0,0,0,0.5,0,0,9999,9999,9,999999999,0,0.0,0,0,0.0,0.0
2026,7,21,4,24,?9?9?9?9E0?9?9?9*9*9?9?9?9?9?9?9*9?9*9*9?9*9,29.33,23.03,68.5,0,0,0,0,0,0.5,0,0,9999,9999,9,999999999,0,0.0,0,0,0.0,0.0
2026,7,21,4,25,?9?9?9?9E0?9?9?9*9*9?9?9?9?9?9?9*9?9*9*9?9*9,29.43,23.32,69.5,0,0,0,0,0,0.5,0,0,9999,9999,9,999999999,0,0.0,0,0,0.0,0.0
2026,7,21,4,26,?9?9?9?9E0?9?9?9*9*9?9?9?9?9?9?9*9?9*9*9?9*9,29.43,23.26,69.2,0,0,0,0,0,0.5,0,0,9999,9999,9,999999999,0,0.0,0,0,0.0,0.0
2026,7,21,4,27,?9?9?9?9E0?9?9?9*9*9?9?9?9?9?9?9*9?9*9*9?9*9,29.50,23.28,68.9,0,0,0,0,0,0.5,0,0,9999,9999,9,999999999,0,0.0,0,0,0.0,0.0
2026,7,21,4,28,?9?9?9?9E0?9?9?9*9*9?9?9?9?9?9?9*9?9*9*9?9*9,29.65,23.30,68.3,0,0,0,0,0,0.5,0,0,9999,9999,9,999999999,0,0.0,0,0,0.0,0.0
2026,7,21,4,29,?9?9?9?9E0?9?9?9*9*9?9?9?9?9?9?9*9?9*9*9?9*9,29.70,23.33,68.1,0,0,0,0,0,0.5,0,0,9999,9999,9,999999999,0,0.0,0,0,0.0,0.0
2026,7,21,4,30,?9?9?9?9E0?9?9?9*9*9?9?9?9?9?9?9*9?9*9*9?9*9,29.86,23.50,68.2,0,0,0,0,0,0.5,0,0,9999,9999,9,999999999,0,0.0,0,0,0.0,0.0
2026,7,21,4,31,?9?9?9?9E0?9?9?9*9*9?9?9?9?9?9?9*9?9*9*9?9*9,29.86,23.31,67.2,0,0,0,0,0,0.5,0,0,9999,9999,9,999999999,0,0.0,0,0,0.0,0.0
2026,7,21,4,32,?9?9?9?9E0?9?9?9*9*9?9?9?9?9?9?9*9?9*9*9?9*9,29.81,23.18,66.8,0,0,0,0,0,0.5,0,0,9999,9999,9,999999999,0,0.0,0,0,0.0,0.0
2026,7,21,4,33,?9?9?9?9E0?9?9?9*9*9?9?9?9?9?9?9*9?9*9*9?9*9,29.73,23.20,67.3,0,0,0,0,0,0.5,0,0,9999,9999,9,999999999,0,0.0,0,0,0.0,0.0
2026,7,21,4,34,?9?9?9?9E0?9?9?9*9*9?9?9?9?9?9?9*9?9*9*9?9*9,29.68,23.26,67.9,0,0,0,0,0,0.5,0,0,9999,9999,9,999999999,0,0.0,0,0,0.0,0.0
2026,7,21,4,35,?9?9?9?9E0?9?9?9*9*9?9?9?9?9?9?9*9?9*9*9?9*9,29.76,23.36,68.0,0,0,0,0,0,0.5,0,0,9999,9999,9,999999999,0,0.0,0,0,0.0,0.0
2026,7,21,4,36,?9?9?9?9E0?9?9?9*9*9?9?9?9?9?9?9*9?9*9*9?9*9,29.86,23.34,67.4,0,0,0,0,0,0.5,0,0,9999,9999,9,999999999,0,0.0,0,0,0.0,0.0
2026,7,21,4,37,?9?9?9?9E0?9?9?9*9*9?9?9?9?9?9?9*9?9*9*9?9*9,29.86,23.34,67.4,0,0,0,0,0,0.5,0,0,9999,9999,9,999999999,0,0.0,0,0,0.0,0.0
2026,7,21,4,38,?9?9?9?9E0?9?9?9*9*9?9?9?9?9?9?9*9?9*9*9?9*9,29.86,23.34,67.4,0,0,0,0,0,0.5,0,0,9999,9999,9,999999999,0,0.0,0,0,0.0,0.0
2026,7,21,4,39,?9?9?9?9E0?9?9?9*9*9?9?9?9?9?9?9*9?9*9*9?9*9,30.12,23.55,67.2,0,0,0,0,0,0.5,0,0,9999,9999,9,999999999,0,0.0,0,0,0.0,0.0
2026,7,21,4,40,?9?9?9?9E0?9?9?9*9*9?9?9?9?9?9?9*9?9*9*9?9*9,30.18,23.67,67.4,0,0,0,0,0,0.5,0,0,9999,9999,9,999999999,0,0.0,0,0,0.0,0.0
2026,7,21,4,41,?9?9?9?9E0?9?9?9*9*9?9?9?9?9?9?9*9?9*9*9?9*9,30.31,23.73,67.1,0,0,0,0,0,0.5,0,0,9999,9999,9,999999999,0,0.0,0,0,0.0,0.0
2026,7,21,4,42,?9?9?9?9E0?9?9?9*9*9?9?9?9?9?9?9*9?9*9*9?9*9,30.34,23.56,66.1,0,0,0,0,0,0.5,0,0,9999,9999,9,999999999,0,0.0,0,0,0.0,0.0
2026,7,21,4,43,?9?9?9?9E0?9?9?9*9*9?9?9?9?9?9?9*9?9*9*9?9*9,30.41,23.69,66.4,0,0,0,0,0,0.5,0,0,9999,9999,9,999999999,0,0.0,0,0,0.0,0.0
2026,7,21,4,44,?9?9?9?9E0?9?9?9*9*9?9?9?9?9?9?9*9?9*9*9?9*9,30.32,23.42,65.5,0,0,0,0,0,0.5,0,0,9999,9999,9,999999999,0,0.0,0,0,0.0,0.0
2026,7,21,4,45,?9?9?9?9E0?9?9?9*9*9?9?9?9?9?9?9*9?9*9*9?9*9,30.32,23.46,65.7,0,0,0,0,0,0.5,0,0,9999,9999,9,999999999,0,0.0,0,0,0.0,0.0
2026,7,21,4,46,?9?9?9?9E0?9?9?9*9*9?9?9?9?9?9?9*9?9*9*9?9*9,30.43,23.59,65.8,0,0,0,0,0,0.5,0,0,9999,9999,9,999999999,0,0.0,0,0,0.0,0.0
2026,7,21,4,47,?9?9?9?9E0?9?9?9*9*9?9?9?9?9?9?9*9?9*9*9?9*9,30.43,23.42,65.0,0,0,0,0,0,0.5,0,0,9999,9999,9,999999999,0,0.0,0,0,0.0,0.0
2026,7,21,4,48,?9?9?9?9E0?9?9?9*9*9?9?9?9?9?9?9*9?9*9*9?9*9,30.52,23.61,65.5,0,0,0,0,0,0.5,0,0,9999,9999,9,999999999,0,0.0,0,0,0.0,0.0
2026,7,21,4,49,?9?9?9?9E0?9?9?9*9*9?9?9?9?9?9?9*9?9*9*9?9*9,30.54,23.71,65.8,0,0,0,0,0,0.5,0,0,9999,9999,9,999999999,0,0.0,0,0,0.0,0.0
2026,7,21,4,50,?9?9?9?9E0?9?9?9*9*9?9?9?9?9?9?9*9?9*9*9?9*9,30.51,23.46,64.7,0,0,0,0,0,0.5,0,0,9999,9999,9,999999999,0,0.0,0,0,0.0,0.0
2026,7,21,4,51,?9?9?9?9E0?9?9?9*9*9?9?9?9?9?9?9*9?9*9*9?9*9,30.53,23.37,64.2,0,0,0,0,0,0.5,0,0,9999,9999,9,999999999,0,0.0,0,0,0.0,0.0
2026,7,21,4,52,?9?9?9?9E0?9?9?9*9*9?9?9?9?9?9?9*9?9*9*9?9*9,30.35,23.43,65.4,0,0,0,0,0,0.5,0,0,9999,9999,9,999999999,0,0.0,0,0,0.0,0.0
2026,7,21,4,53,?9?9?9?9E0?9?9?9*9*9?9?9?9?9?9?9*9?9*9*9?9*9,30.43,23.60,65.8,0,0,0,0,0,0.5,0,0,9999,9999,9,999999999,0,0.0,0,0,0.0,0.0
2026,7,21,4,54,?9?9?9?9E0?9?9?9*9*9?9?9?9?9?9?9*9?9*9*9?9*9,30.51,23.58,65.3,0,0,0,0,0,0.5,0,0,9999,9999,9,999999999,0,0.0,0,0,0.0,0.0
2026,7,21,4,55,?9?9?9?9E0?9?9?9*9*9?9?9?9?9?9?9*9?9*9*9?9*9,30.56,23.57,65.0,0,0,0,0,0,0.5,0,0,9999,9999,9,999999999,0,0.0,0,0,0.0,0.0
2026,7,21,4,56,?9?9?9?9E0?9?9?9*9*9?9?9?9?9?9?9*9?9*9*9?9*9,30.58,23.35,63.8,0,0,0,0,0,0.5,0,0,9999,9999,9,999999999,0,0.0,0,0,0.0,0.0
2026,7,21,4,57,?9?9?9?9E0?9?9?9*9*9?9?9?9?9?9?9*9?9*9*9?9*9,30.65,23.66,65.0,0,0,0,0,0,0.5,0,0,9999,9999,9,999999999,0,0.0,0,0,0.0,0.0
2026,7,21,4,58,?9?9?9?9E0?9?9?9*9*9?9?9?9?9?9?9*9?9*9*9?9*9,30.60,23.40,64.0,0,0,0,0,0,0.5,0,0,9999,9999,9,999999999,0,0.0,0,0,0.0,0.0
2026,7,21,4,59,?9?9?9?9E0?9?9?9*9*9?9?9?9?9?9?9*9?9*9*9?9*9,30.56,23.39,64.1,0,0,0,0,0,0.5,0,0,9999,9999,9,999999999,0,0.0,0,0,0.0,0.0
2026,7,21,4,60,?9?9?9?9E0?9?9?9*9*9?9?9?9?9?9?9*9?9*9*9?9*9,30.53,23.45,64.6,0,0,0,0,0,0.5,0,0,9999,9999,9,999999999,0,0.0,0,0,0.0,0.0
2026,7,21,5,1,?9?9?9?9E0?9?9?9*9*9?9?9?9?9?9?9*9?9*9*9?9*9,30.55,23.72,65.9,0,0,0,0,0,0.5,0,0,9999,9999,9,999999999,0,0.0,0,0,0.0,0.0
2026,7,21,5,2,?9?9?9?9E0?9?9?9*9*9?9?9?9?9?9?9*9?9*9*9?9*9,30.51,23.60,65.4,0,0,0,0,0,0.5,0,0,9999,9999,9,999999999,0,0.0,0,0,0.0,0.0
2026,7,21,5,3,?9?9?9?9E0?9?9?9*9*9?9?9?9?9?9?9*9?9*9*9?9*9,30.57,23.37,64.0,0,0,0,0,0,0.5,0,0,9999,9999,9,999999999,0,0.0,0,0,0.0,0.0
2026,7,21,5,4,?9?9?9?9E0?9?9?9*9*9?9?9?9?9?9?9*9?9*9*9?9*9,30.57,23.51,64.7,0,0,0,0,0,0.5,0,0,9999,9999,9,999999999,0,0.0,0,0,0.0,0.0
2026,7,21,5,5,?9?9?9?9E0?9?9?9*9*9?9?9?9?9?9?9*9?9*9*9?9*9,30.47,23.55,65.4,0,0,0,0,0,0.5,0,0,9999,9999,9,999999999,0,0.0,0,0,0.0,0.0
2026,7,21,5,6,?9?9?9?9E0?9?9?9*9*9?9?9?9?9?9?9*9?9*9*9?9*9,30.52,23.58,65.3,0,0,0,0,0,0.5,0,0,9999,9999,9,999999999,0,0.0,0,0,0.0,0.0
2026,7,21,5,7,?9?9?9?9E0?9?9?9*9*9?9?9?9?9?9?9*9?9*9*9?9*9,30.46,23.67,66.0,0,0,0,0,0,0.5,0,0,9999,9999,9,999999999,0,0.0,0,0,0.0,0.0
2026,7,21,5,8,?9?9?9?9E0?9?9?9*9*9?9?9?9?9?9?9*9?9*9*9?9*9,30.55,23.69,65.7,0,0,0,0,0,0.5,0,0,9999,9999,9,999999999,0,0.0,0,0,0.0,0.0
2026,7,21,5,9,?9?9?9?9E0?9?9?9*9*9?9?9?9?9?9?9*9?9*9*9?9*9,30.46,23.42,64.8,0,0,0,0,0,0.5,0,0,9999,9999,9,999999999,0,0.0,0,0,0.0,0.0
2026,7,21,5,10,?9?9?9?9E0?9?9?9*9*9?9?9?9?9?9?9*9?9*9*9?9*9,30.51,23.49,64.9,0,0,0,0,0,0.5,0,0,9999,9999,9,999999999,0,0.0,0,0,0.0,0.0
2026,7,21,5,11,?9?9?9?9E0?9?9?9*9*9?9?9?9?9?9?9*9?9*9*9?9*9,30.50,23.44,64.7,0,0,0,0,0,0.5,0,0,9999,9999,9,999999999,0,0.0,0,0,0.0,0.0
2026,7,21,5,12,?9?9?9?9E0?9?9?9*9*9?9?9?9?9?9?9*9?9*9*9?9*9,30.38,23.33,64.7,0,0,0,0,0,0.5,0,0,9999,9999,9,999999999,0,0.0,0,0,0.0,0.0
2026,7,21,5,13,?9?9?9?9E0?9?9?9*9*9?9?9?9?9?9?9*9?9*9*9?9*9,30.52,23.45,64.6,0,0,0,0,0,0.5,0,0,9999,9999,9,999999999,0,0.0,0,0,0.0,0.0
2026,7,21,5,14,?9?9?9?9E0?9?9?9*9*9?9?9?9?9?9?9*9?9*9*9?9*9,30.45,23.41,64.8,0,0,0,0,0,0.5,0,0,9999,9999,9,999999999,0,0.0,0,0,0.0,0.0
2026,7,21,5,15,?9?9?9?9E0?9?9?9*9*9?9?9?9?9?9?9*9?9*9*9?9*9,30.59,23.47,64.4,0,0,0,0,0,0.5,0,0,9999,9999,9,999999999,0,0.0,0,0,0.0,0.0
2026,7,21,5,16,?9?9?9?9E0?9?9?9*9*9?9?9?9?9?9?9*9?9*9*9?9*9,30.66,23.69,65.2,0,0,0,0,0,0.5,0,0,9999,9999,9,999999999,0,0.0,0,0,0.0,0.0
2026,7,21,5,17,?9?9?9?9E0?9?9?9*9*9?9?9?9?9?9?9*9?9*9*9?9*9,30.52,23.39,64.4,0,0,0,0,0,0.5,0,0,9999,9999,9,999999999,0,0.0,0,0,0.0,0.0
2026,7,21,5,18,?9?9?9?9E0?9?9?9*9*9?9?9?9?9?9?9*9?9*9*9?9*9,30.52,23.34,64.1,0,0,0,0,0,0.5,0,0,9999,9999,9,999999999,0,0.0,0,0,0.0,0.0
2026,7,21,5,19,?9?9?9?9E0?9?9?9*9*9?9?9?9?9?9?9*9?9*9*9?9*9,30.62,23.62,65.0,0,0,0,0,0,0.5,0,0,9999,9999,9,999999999,0,0.0,0,0,0.0,0.0
2026,7,21,5,20,?9?9?9?9E0?9?9?9*9*9?9?9?9?9?9?9*9?9*9*9?9*9,30.66,23.37,63.6,0,0,0,0,0,0.5,0,0,9999,9999,9,999999999,0,0.0,0,0,0.0,0.0
2026,7,21,5,21,?9?9?9?9E0?9?9?9*9*9?9?9?9?9?9?9*9?9*9*9?9*9,30.58,23.32,63.7,0,0,0,0,0,0.5,0,0,9999,9999,9,999999999,0,0.0,0,0,0.0,0.0
2026,7,21,5,22,?9?9?9?9E0?9?9?9*9*9?9?9?9?9?9?9*9?9*9*9?9*9,30.67,23.56,64.5,0,0,0,0,0,0.5,0,0,9999,9999,9,999999999,0,0.0,0,0,0.0,0.0
2026,7,21,5,23,?9?9?9?9E0?9?9?9*9*9?9?9?9?9?9?9*9?9*9*9?9*9,30.62,23.21,63.0,0,0,0,0,0,0.5,0,0,9999,9999,9,999999999,0,0.0,0,0,0.0,0.0
2026,7,21,5,24,?9?9?9?9E0?9?9?9*9*9?9?9?9?9?9?9*9?9*9*9?9*9,30.68,23.46,63.9,0,0,0,0,0,0.5,0,0,9999,9999,9,999999999,0,0.0,0,0,0.0,0.0
2026,7,21,5,25,?9?9?9?9E0?9?9?9*9*9?9?9?9?9?9?9*9?9*9*9?9*9,30.64,23.07,62.1,0,0,0,0,0,0.5,0,0,9999,9999,9,999999999,0,0.0,0,0,0.0,0.0
2026,7,21,5,26,?9?9?9?9E0?9?9?9*9*9?9?9?9?9?9?9*9?9*9*9?9*9,30.61,23.13,62.6,0,0,0,0,0,0.5,0,0,9999,9999,9,999999999,0,0.0,0,0,0.0,0.0
2026,7,21,5,27,?9?9?9?9E0?9?9?9*9*9?9?9?9?9?9?9*9?9*9*9?9*9,30.57,23.42,64.2,0,0,0,0,0,0.5,0,0,9999,9999,9,999999999,0,0.0,0,0,0.0,0.0
2026,7,21,5,28,?9?9?9?9E0?9?9?9*9*9?9?9?9?9?9?9*9?9*9*9?9*9,30.68,23.47,64.0,0,0,0,0,0,0.5,0,0,9999,9999,9,999999999,0,0.0,0,0,0.0,0.0
2026,7,21,5,29,?9?9?9?9E0?9?9?9*9*9?9?9?9?9?9?9*9?9*9*9?9*9,30.52,23.34,64.1,0,0,0,0,0,0.5,0,0,9999,9999,9,999999999,0,0.0,0,0,0.0,0.0
2026,7,21,5,30,?9?9?9?9E0?9?9?9*9*9?9?9?9?9?9?9*9?9*9*9?9*9,30.71,23.58,64.4,0,0,0,0,0,0.5,0,0,9999,9999,9,999999999,0,0.0,0,0,0.0,0.0
2026,7,21,5,31,?9?9?9?9E0?9?9?9*9*9?9?9?9?9?9?9*9?9*9*9?9*9,30.66,23.49,64.2,0,0,0,0,0,0.5,0,0,9999,9999,9,999999999,0,0.0,0,0,0.0,0.0
2026,7,21,5,32,?9?9?9?9E0?9?9?9*9*9?9?9?9?9?9?9*9?9*9*9?9*9,30.66,23.49,64.2,0,0,0,0,0,0.5,0,0,9999,9999,9,999999999,0,0.0,0,0,0.0,0.0
2026,7,21,5,33,?9?9?9?9E0?9?9?9*9*9?9?9?9?9?9?9*9?9*9*9?9*9,30.66,23.49,64.2,0,0,0,0,0,0.5,0,0,9999,9999,9,999999999,0,0.0,0,0,0.0,0.0
2026,7,21,5,34,?9?9?9?9E0?9?9?9*9*9?9?9?9?9?9?9*9?9*9*9?9*9,30.66,23.49,64.2,0,0,0,0,0,0.5,0,0,9999,9999,9,999999999,0,0.0,0,0,0.0,0.0
2026,7,21,5,35,?9?9?9?9E0?9?9?9*9*9?9?9?9?9?9?9*9?9*9*9?9*9,30.66,23.49,64.2,0,0,0,0,0,0.5,0,0,9999,9999,9,999999999,0,0.0,0,0,0.0,0.0
2026,7,21,5,36,?9?9?9?9E0?9?9?9*9*9?9?9?9?9?9?9*9?9*9*9?9*9,30.66,23.49,64.2,0,0,0,0,0,0.5,0,0,9999,9999,9,999999999,0,0.0,0,0,0.0,0.0
2026,7,21,5,37,?9?9?9?9E0?9?9?9*9*9?9?9?9?9?9?9*9?9*9*9?9*9,30.66,23.49,64.2,0,0,0,0,0,0.5,0,0,9999,9999,9,999999999,0,0.0,0,0,0.0,0.0
2026,7,21,5,38,?9?9?9?9E0?9?9?9*9*9?9?9?9?9?9?9*9?9*9*9?9*9,30.66,23.49,64.2,0,0,0,0,0,0.5,0,0,9999,9999,9,999999999,0,0.0,0,0,0.0,0.0
2026,7,21,5,39,?9?9?9?9E0?9?9?9*9*9?9?9?9?9?9?9*9?9*9*9?9*9,30.66,23.49,64.2,0,0,0,0,0,0.5,0,0,9999,9999,9,999999999,0,0.0,0,0,0.0,0.0
2026,7,21,5,40,?9?9?9?9E0?9?9?9*9*9?9?9?9?9?9?9*9?9*9*9?9*9,30.66,23.49,64.2,0,0,0,0,0,0.5,0,0,9999,9999,9,999999999,0,0.0,0,0,0.0,0.0
2026,7,21,5,41,?9?9?9?9E0?9?9?9*9*9?9?9?9?9?9?9*9?9*9*9?9*9,30.66,23.49,64.2,0,0,0,0,0,0.5,0,0,9999,9999,9,999999999,0,0.0,0,0,0.0,0.0
2026,7,21,5,42,?9?9?9?9E0?9?9?9*9*9?9?9?9?9?9?9*9?9*9*9?9*9,30.66,23.49,64.2,0,0,0,0,0,0.5,0,0,9999,9999,9,999999999,0,0.0,0,0,0.0,0.0
2026,7,21,5,43,?9?9?9?9E0?9?9?9*9*9?9?9?9?9?9?9*9?9*9*9?9*9,30.66,23.49,64.2,0,0,0,0,0,0.5,0,0,9999,9999,9,999999999,0,0.0,0,0,0.0,0.0
2026,7,21,5,44,?9?9?9?9E0?9?9?9*9*9?9?9?9?9?9?9*9?9*9*9?9*9,30.66,23.49,64.2,0,0,0,0,0,0.5,0,0,9999,9999,9,999999999,0,0.0,0,0,0.0,0.0
2026,7,21,5,45,?9?9?9?9E0?9?9?9*9*9?9?9?9?9?9?9*9?9*9*9?9*9,30.66,23.49,64.2,0,0,0,0,0,0.5,0,0,9999,9999,9,999999999,0,0.0,0,0,0.0,0.0
2026,7,21,5,46,?9?9?9?9E0?9?9?9*9*9?9?9?9?9?9?9*9?9*9*9?9*9,30.66,23.49,64.2,0,0,0,0,0,0.5,0,0,9999,9999,9,999999999,0,0.0,0,0,0.0,0.0
2026,7,21,5,47,?9?9?9?9E0?9?9?9*9*9?9?9?9?9?9?9*9?9*9*9?9*9,30.66,23.49,64.2,0,0,0,0,0,0.5,0,0,9999,9999,9,999999999,0,0.0,0,0,0.0,0.0
2026,7,21,5,48,?9?9?9?9E0?9?9?9*9*9?9?9?9?9?9?9*9?9*9*9?9*9,30.66,23.49,64.2,0,0,0,0,0,0.5,0,0,9999,9999,9,999999999,0,0.0,0,0,0.0,0.0
2026,7,21,5,49,?9?9?9?9E0?9?9?9*9*9?9?9?9?9?9?9*9?9*9*9?9*9,30.66,23.49,64.2,0,0,0,0,0,0.5,0,0,9999,9999,9,999999999,0,0.0,0,0,0.0,0.0
2026,7,21,5,50,?9?9?9?9E0?9?9?9*9*9?9?9?9?9?9?9*9?9*9*9?9*9,30.66,23.49,64.2,0,0,0,0,0,0.5,0,0,9999,9999,9,999999999,0,0.0,0,0,0.0,0.0
2026,7,21,5,51,?9?9?9?9E0?9?9?9*9*9?9?9?9?9?9?9*9?9*9*9?9*9,30.66,23.49,64.2,0,0,0,0,0,0.5,0,0,9999,9999,9,999999999,0,0.0,0,0,0.0,0.0
2026,7,21,5,52,?9?9?9?9E0?9?9?9*9*9?9?9?9?9?9?9*9?9*9*9?9*9,30.66,23.49,64.2,0,0,0,0,0,0.5,0,0,9999,9999,9,999999999,0,0.0,0,0,0.0,0.0
2026,7,21,5,53,?9?9?9?9E0?9?9?9*9*9?9?9?9?9?9?9*9?9*9*9?9*9,30.66,23.49,64.2,0,0,0,0,0,0.5,0,0,9999,9999,9,999999999,0,0.0,0,0,0.0,0.0
2026,7,21,5,54,?9?9?9?9E0?9?9?9*9*9?9?9?9?9?9?9*9?9*9*9?9*9,30.66,23.49,64.2,0,0,0,0,0,0.5,0,0,9999,9999,9,999999999,0,0.0,0,0,0.0,0.0
2026,7,21,5,55,?9?9?9?9E0?9?9?9*9*9?9?9?9?9?9?9*9?9*9*9?9*9,30.66,23.49,64.2,0,0,0,0,0,0.5,0,0,9999,9999,9,999999999,0,0.0,0,0,0.0,0.0
2026,7,21,5,56,?9?9?9?9E0?9?9?9*9*9?9?9?9?9?9?9*9?9*9*9?9*9,30.66,23.49,64.2,0,0,0,0,0,0.5,0,0,9999,9999,9,999999999,0,0.0,0,0,0.0,0.0
2026,7,21,5,57,?9?9?9?9E0?9?9?9*9*9?9?9?9?9?9?9*9?9*9*9?9*9,30.66,23.49,64.2,0,0,0,0,0,0.5,0,0,9999,9999,9,999999999,0,0.0,0,0,0.0,0.0
2026,7,21,5,58,?9?9?9?9E0?9?9?9*9*9?9?9?9?9?9?9*9?9*9*9?9*9,30.66,23.49,64.2,0,0,0,0,0,0.5,0,0,9999,9999,9,999999999,0,0.0,0,0,0.0,0.0
2026,7,21,5,59,?9?9?9?9E0?9?9?9*9*9?9?9?9?9?9?9*9?9*9*9?9*9,30.66,23.49,64.2,0,0,0,0,0,0.5,0,0,9999,9999,9,999999999,0,0.0,0,0,0.0,0.0
2026,7,21,5,60,?9?9?9?9E0?9?9?9*9*9?9?9?9?9?9?9*9?9*9*9?9*9,30.66,23.49,64.2,0,0,0,0,0,0.5,0,0,9999,9999,9,999999999,0,0.0,0,0,0.0,0.0
2026,7,21,6,1,?9?9?9?9E0?9?9?9*9*9?9?9?9?9?9?9*9?9*9*9?9*9,30.66,23.49,64.2,0,0,0,0,0,0.5,0,0,9999,9999,9,999999999,0,0.0,0,0,0.0,0.0
2026,7,21,6,2,?9?9?9?9E0?9?9?9*9*9?9?9?9?9?9?9*9?9*9*9?9*9,30.66,23.49,64.2,0,0,0,0,0,0.5,0,0,9999,9999,9,999999999,0,0.0,0,0,0.0,0.0
2026,7,21,6,3,?9?9?9?9E0?9?9?9*9*9?9?9?9?9?9?9*9?9*9*9?9*9,30.66,23.49,64.2,0,0,0,0,0,0.5,0,0,9999,9999,9,999999999,0,0.0,0,0,0.0,0.0
2026,7,21,6,4,?9?9?9?9E0?9?9?9*9*9?9?9?9?9?9?9*9?9*9*9?9*9,30.66,23.49,64.2,0,0,0,0,0,0.5,0,0,9999,9999,9,999999999,0,0.0,0,0,0.0,0.0
2026,7,21,6,5,?9?9?9?9E0?9?9?9*9*9?9?9?9?9?9?9*9?9*9*9?9*9,30.66,23.49,64.2,0,0,0,0,0,0.5,0,0,9999,9999,9,999999999,0,0.0,0,0,0.0,0.0
2026,7,21,6,6,?9?9?9?9E0?9?9?9*9*9?9?9?9?9?9?9*9?9*9*9?9*9,30.66,23.49,64.2,0,0,0,0,0,0.5,0,0,9999,9999,9,999999999,0,0.0,0,0,0.0,0.0
2026,7,21,6,7,?9?9?9?9E0?9?9?9*9*9?9?9?9?9?9?9*9?9*9*9?9*9,30.66,23.49,64.2,0,0,0,0,0,0.5,0,0,9999,9999,9,999999999,0,0.0,0,0,0.0,0.0
2026,7,21,6,8,?9?9?9?9E0?9?9?9*9*9?9?9?9?9?9?9*9?9*9*9?9*9,30.66,23.49,64.2,0,0,0,0,0,0.5,0,0,9999,9999,9,999999999,0,0.0,0,0,0.0,0.0
2026,7,21,6,9,?9?9?9?9E0?9?9?9*9*9?9?9?9?9?9?9*9?9*9*9?9*9,30.66,23.49,64.2,0,0,0,0,0,0.5,0,0,9999,9999,9,999999999,0,0.0,0,0,0.0,0.0
2026,7,21,6,10,?9?9?9?9E0?9?9?9*9*9?9?9?9?9?9?9*9?9*9*9?9*9,30.66,23.49,64.2,0,0,0,0,0,0.5,0,0,9999,9999,9,999999999,0,0.0,0,0,0.0,0.0
2026,7,21,6,11,?9?9?9?9E0?9?9?9*9*9?9?9?9?9?9?9*9?9*9*9?9*9,30.66,23.49,64.2,0,0,0,0,0,0.5,0,0,9999,9999,9,999999999,0,0.0,0,0,0.0,0.0
2026,7,21,6,12,?9?9?9?9E0?9?9?9*9*9?9?9?9?9?9?9*9?9*9*9?9*9,30.66,23.49,64.2,0,0,0,0,0,0.5,0,0,9999,9999,9,999999999,0,0.0,0,0,0.0,0.0
2026,7,21,6,13,?9?9?9?9E0?9?9?9*9*9?9?9?9?9?9?9*9?9*9*9?9*9,30.66,23.49,64.2,0,0,0,0,0,0.5,0,0,9999,9999,9,999999999,0,0.0,0,0,0.0,0.0
2026,7,21,6,14,?9?9?9?9E0?9?9?9*9*9?9?9?9?9?9?9*9?9*9*9?9*9,30.66,23.49,64.2,0,0,0,0,0,0.5,0,0,9999,9999,9,999999999,0,0.0,0,0,0.0,0.0
2026,7,21,6,15,?9?9?9?9E0?9?9?9*9*9?9?9?9?9?9?9*9?9*9*9?9*9,30.66,23.49,64.2,0,0,0,0,0,0.5,0,0,9999,9999,9,999999999,0,0.0,0,0,0.0,0.0
2026,7,21,6,16,?9?9?9?9E0?9?9?9*9*9?9?9?9?9?9?9*9?9*9*9?9*9,30.66,23.49,64.2,0,0,0,0,0,0.5,0,0,9999,9999,9,999999999,0,0.0,0,0,0.0,0.0
2026,7,21,6,17,?9?9?9?9E0?9?9?9*9*9?9?9?9?9?9?9*9?9*9*9?9*9,30.66,23.49,64.2,0,0,0,0,0,0.5,0,0,9999,9999,9,999999999,0,0.0,0,0,0.0,0.0
2026,7,21,6,18,?9?9?9?9E0?9?9?9*9*9?9?9?9?9?9?9*9?9*9*9?9*9,30.66,23.49,64.2,0,0,0,0,0,0.5,0,0,9999,9999,9,999999999,0,0.0,0,0,0.0,0.0
2026,7,21,6,19,?9?9?9?9E0?9?9?9*9*9?9?9?9?9?9?9*9?9*9*9?9*9,30.66,23.49,64.2,0,0,0,0,0,0.5,0,0,9999,9999,9,999999999,0,0.0,0,0,0.0,0.0
2026,7,21,6,20,?9?9?9?9E0?9?9?9*9*9?9?9?9?9?9?9*9?9*9*9?9*9,30.66,23.49,64.2,0,0,0,0,0,0.5,0,0,9999,9999,9,999999999,0,0.0,0,0,0.0,0.0
2026,7,21,6,21,?9?9?9?9E0?9?9?9*9*9?9?9?9?9?9?9*9?9*9*9?9*9,30.66,23.49,64.2,0,0,0,0,0,0.5,0,0,9999,9999,9,999999999,0,0.0,0,0,0.0,0.0
2026,7,21,6,22,?9?9?9?9E0?9?9?9*9*9?9?9?9?9?9?9*9?9*9*9?9*9,30.66,23.49,64.2,0,0,0,0,0,0.5,0,0,9999,9999,9,999999999,0,0.0,0,0,0.0,0.0
2026,7,21,6,23,?9?9?9?9E0?9?9?9*9*9?9?9?9?9?9?9*9?9*9*9?9*9,30.66,23.49,64.2,0,0,0,0,0,0.5,0,0,9999,9999,9,999999999,0,0.0,0,0,0.0,0.0
2026,7,21,6,24,?9?9?9?9E0?9?9?9*9*9?9?9?9?9?9?9*9?9*9*9?9*9,30.66,23.49,64.2,0,0,0,0,0,0.5,0,0,9999,9999,9,999999999,0,0.0,0,0,0.0,0.0
2026,7,21,6,25,?9?9?9?9E0?9?9?9*9*9?9?9?9?9?9?9*9?9*9*9?9*9,30.66,23.49,64.2,0,0,0,0,0,0.5,0,0,9999,9999,9,999999999,0,0.0,0,0,0.0,0.0
2026,7,21,6,26,?9?9?9?9E0?9?9?9*9*9?9?9?9?9?9?9*9?9*9*9?9*9,30.66,23.49,64.2,0,0,0,0,0,0.5,0,0,9999,9999,9,999999999,0,0.0,0,0,0.0,0.0
2026,7,21,6,27,?9?9?9?9E0?9?9?9*9*9?9?9?9?9?9?9*9?9*9*9?9*9,30.66,23.49,64.2,0,0,0,0,0,0.5,0,0,9999,9999,9,999999999,0,0.0,0,0,0.0,0.0
2026,7,21,6,28,?9?9?9?9E0?9?9?9*9*9?9?9?9?9?9?9*9?9*9*9?9*9,30.66,23.49,64.2,0,0,0,0,0,0.5,0,0,9999,9999,9,999999999,0,0.0,0,0,0.0,0.0
2026,7,21,6,29,?9?9?9?9E0?9?9?9*9*9?9?9?9?9?9?9*9?9*9*9?9*9,30.66,23.49,64.2,0,0,0,0,0,0.5,0,0,9999,9999,9,999999999,0,0.0,0,0,0.0,0.0
2026,7,21,6,30,?9?9?9?9E0?9?9?9*9*9?9?9?9?9?9?9*9?9*9*9?9*9,30.66,23.49,64.2,0,0,0,0,0,0.5,0,0,9999,9999,9,999999999,0,0.0,0,0,0.0,0.0
2026,7,21,6,31,?9?9?9?9E0?9?9?9*9*9?9?9?9?9?9?9*9?9*9*9?9*9,30.66,23.49,64.2,0,0,0,0,0,0.5,0,0,9999,9999,9,999999999,0,0.0,0,0,0.0,0.0
2026,7,21,6,32,?9?9?9?9E0?9?9?9*9*9?9?9?9?9?9?9*9?9*9*9?9*9,30.66,23.49,64.2,0,0,0,0,0,0.5,0,0,9999,9999,9,999999999,0,0.0,0,0,0.0,0.0
2026,7,21,6,33,?9?9?9?9E0?9?9?9*9*9?9?9?9?9?9?9*9?9*9*9?9*9,30.66,23.49,64.2,0,0,0,0,0,0.5,0,0,9999,9999,9,999999999,0,0.0,0,0,0.0,0.0
2026,7,21,6,34,?9?9?9?9E0?9?9?9*9*9?9?9?9?9?9?9*9?9*9*9?9*9,30.66,23.49,64.2,0,0,0,0,0,0.5,0,0,9999,9999,9,999999999,0,0.0,0,0,0.0,0.0
2026,7,21,6,35,?9?9?9?9E0?9?9?9*9*9?9?9?9?9?9?9*9?9*9*9?9*9,30.66,23.49,64.2,0,0,0,0,0,0.5,0,0,9999,9999,9,999999999,0,0.0,0,0,0.0,0.0
2026,7,21,6,36,?9?9?9?9E0?9?9?9*9*9?9?9?9?9?9?9*9?9*9*9?9*9,30.66,23.49,64.2,0,0,0,0,0,0.5,0,0,9999,9999,9,999999999,0,0.0,0,0,0.0,0.0
2026,7,21,6,37,?9?9?9?9E0?9?9?9*9*9?9?9?9?9?9?9*9?9*9*9?9*9,30.66,23.49,64.2,0,0,0,0,0,0.5,0,0,9999,9999,9,999999999,0,0.0,0,0,0.0,0.0
2026,7,21,6,38,?9?9?9?9E0?9?9?9*9*9?9?9?9?9?9?9*9?9*9*9?9*9,30.66,23.49,64.2,0,0,0,0,0,0.5,0,0,9999,9999,9,999999999,0,0.0,0,0,0.0,0.0
2026,7,21,6,39,?9?9?9?9E0?9?9?9*9*9?9?9?9?9?9?9*9?9*9*9?9*9,30.66,23.49,64.2,0,0,0,0,0,0.5,0,0,9999,9999,9,999999999,0,0.0,0,0,0.0,0.0
2026,7,21,6,40,?9?9?9?9E0?9?9?9*9*9?9?9?9?9?9?9*9?9*9*9?9*9,30.66,23.49,64.2,0,0,0,0,0,0.5,0,0,9999,9999,9,999999999,0,0.0,0,0,0.0,0.0
2026,7,21,6,41,?9?9?9?9E0?9?9?9*9*9?9?9?9?9?9?9*9?9*9*9?9*9,30.66,23.49,64.2,0,0,0,0,0,0.5,0,0,9999,9999,9,999999999,0,0.0,0,0,0.0,0.0
2026,7,21,6,42,?9?9?9?9E0?9?9?9*9*9?9?9?9?9?9?9*9?9*9*9?9*9,30.66,23.49,64.2,0,0,0,0,0,0.5,0,0,9999,9999,9,999999999,0,0.0,0,0,0.0,0.0
2026,7,21,6,43,?9?9?9?9E0?9?9?9*9*9?9?9?9?9?9?9*9?9*9*9?9*9,30.66,23.49,64.2,0,0,0,0,0,0.5,0,0,9999,9999,9,999999999,0,0.0,0,0,0.0,0.0
2026,7,21,6,44,?9?9?9?9E0?9?9?9*9*9?9?9?9?9?9?9*9?9*9*9?9*9,30.66,23.49,64.2,0,0,0,0,0,0.5,0,0,9999,9999,9,999999999,0,0.0,0,0,0.0,0.0
2026,7,21,6,45,?9?9?9?9E0?9?9?9*9*9?9?9?9?9?9?9*9?9*9*9?9*9,30.66,23.49,64.2,0,0,0,0,0,0.5,0,0,9999,9999,9,999999999,0,0.0,0,0,0.0,0.0
2026,7,21,6,46,?9?9?9?9E0?9?9?9*9*9?9?9?9?9?9?9*9?9*9*9?9*9,30.66,23.49,64.2,0,0,0,0,0,0.5,0,0,9999,9999,9,999999999,0,0.0,0,0,0.0,0.0
2026,7,21,6,47,?9?9?9?9E0?9?9?9*9*9?9?9?9?9?9?9*9?9*9*9?9*9,30.66,23.49,64.2,0,0,0,0,0,0.5,0,0,9999,9999,9,999999999,0,0.0,0,0,0.0,0.0
2026,7,21,6,48,?9?9?9?9E0?9?9?9*9*9?9?9?9?9?9?9*9?9*9*9?9*9,30.66,23.49,64.2,0,0,0,0,0,0.5,0,0,9999,9999,9,999999999,0,0.0,0,0,0.0,0.0
2026,7,21,6,49,?9?9?9?9E0?9?9?9*9*9?9?9?9?9?9?9*9?9*9*9?9*9,30.66,23.49,64.2,0,0,0,0,0,0.5,0,0,9999,9999,9,999999999,0,0.0,0,0,0.0,0.0
2026,7,21,6,50,?9?9?9?9E0?9?9?9*9*9?9?9?9?9?9?9*9?9*9*9?9*9,30.66,23.49,64.2,0,0,0,0,0,0.5,0,0,9999,9999,9,999999999,0,0.0,0,0,0.0,0.0
2026,7,21,6,51,?9?9?9?9E0?9?9?9*9*9?9?9?9?9?9?9*9?9*9*9?9*9,30.66,23.49,64.2,0,0,0,0,0,0.5,0,0,9999,9999,9,999999999,0,0.0,0,0,0.0,0.0
2026,7,21,6,52,?9?9?9?9E0?9?9?9*9*9?9?9?9?9?9?9*9?9*9*9?9*9,30.66,23.49,64.2,0,0,0,0,0,0.5,0,0,9999,9999,9,999999999,0,0.0,0,0,0.0,0.0
2026,7,21,6,53,?9?9?9?9E0?9?9?9*9*9?9?9?9?9?9?9*9?9*9*9?9*9,30.66,23.49,64.2,0,0,0,0,0,0.5,0,0,9999,9999,9,999999999,0,0.0,0,0,0.0,0.0
2026,7,21,6,54,?9?9?9?9E0?9?9?9*9*9?9?9?9?9?9?9*9?9*9*9?9*9,30.66,23.49,64.2,0,0,0,0,0,0.5,0,0,9999,9999,9,999999999,0,0.0,0,0,0.0,0.0
2026,7,21,6,55,?9?9?9?9E0?9?9?9*9*9?9?9?9?9?9?9*9?9*9*9?9*9,30.66,23.49,64.2,0,0,0,0,0,0.5,0,0,9999,9999,9,999999999,0,0.0,0,0,0.0,0.0
2026,7,21,6,56,?9?9?9?9E0?9?9?9*9*9?9?9?9?9?9?9*9?9*9*9?9*9,30.66,23.49,64.2,0,0,0,0,0,0.5,0,0,9999,9999,9,999999999,0,0.0,0,0,0.0,0.0
2026,7,21,6,57,?9?9?9?9E0?9?9?9*9*9?9?9?9?9?9?9*9?9*9*9?9*9,30.66,23.49,64.2,0,0,0,0,0,0.5,0,0,9999,9999,9,999999999,0,0.0,0,0,0.0,0.0
2026,7,21,6,58,?9?9?9?9E0?9?9?9*9*9?9?9?9?9?9?9*9?9*9*9?9*9,30.66,23.49,64.2,0,0,0,0,0,0.5,0,0,9999,9999,9,999999999,0,0.0,0,0,0.0,0.0
2026,7,21,6,59,?9?9?9?9E0?9?9?9*9*9?9?9?9?9?9?9*9?9*9*9?9*9,30.66,23.49,64.2,0,0,0,0,0,0.5,0,0,9999,9999,9,999999999,0,0.0,0,0,0.0,0.0
2026,7,21,6,60,?9?9?9?9E0?9?9?9*9*9?9?9?9?9?9?9*9?9*9*9?9*9,30.66,23.49,64.2,0,0,0,0,0,0.5,0,0,9999,9999,9,999999999,0,0.0,0,0,0.0,0.0
2026,7,21,7,1,?9?9?9?9E0?9?9?9*9*9?9?9?9?9?9?9*9?9*9*9?9*9,30.66,23.49,64.2,0,0,0,0,0,0.5,0,0,9999,9999,9,999999999,0,0.0,0,0,0.0,0.0
2026,7,21,7,2,?9?9?9?9E0?9?9?9*9*9?9?9?9?9?9?9*9?9*9*9?9*9,30.66,23.49,64.2,0,0,0,0,0,0.5,0,0,9999,9999,9,999999999,0,0.0,0,0,0.0,0.0
2026,7,21,7,3,?9?9?9?9E0?9?9?9*9*9?9?9?9?9?9?9*9?9*9*9?9*9,30.66,23.49,64.2,0,0,0,0,0,0.5,0,0,9999,9999,9,999999999,0,0.0,0,0,0.0,0.0
2026,7,21,7,4,?9?9?9?9E0?9?9?9*9*9?9?9?9?9?9?9*9?9*9*9?9*9,30.66,23.49,64.2,0,0,0,0,0,0.5,0,0,9999,9999,9,999999999,0,0.0,0,0,0.0,0.0
2026,7,21,7,5,?9?9?9?9E0?9?9?9*9*9?9?9?9?9?9?9*9?9*9*9?9*9,30.66,23.49,64.2,0,0,0,0,0,0.5,0,0,9999,9999,9,999999999,0,0.0,0,0,0.0,0.0
2026,7,21,7,6,?9?9?9?9E0?9?9?9*9*9?9?9?9?9?9?9*9?9*9*9?9*9,30.66,23.49,64.2,0,0,0,0,0,0.5,0,0,9999,9999,9,999999999,0,0.0,0,0,0.0,0.0
2026,7,21,7,7,?9?9?9?9E0?9?9?9*9*9?9?9?9?9?9?9*9?9*9*9?9*9,30.66,23.49,64.2,0,0,0,0,0,0.5,0,0,9999,9999,9,999999999,0,0.0,0,0,0.0,0.0
2026,7,21,7,8,?9?9?9?9E0?9?9?9*9*9?9?9?9?9?9?9*9?9*9*9?9*9,30.66,23.49,64.2,0,0,0,0,0,0.5,0,0,9999,9999,9,999999999,0,0.0,0,0,0.0,0.0
2026,7,21,7,9,?9?9?9?9E0?9?9?9*9*9?9?9?9?9?9?9*9?9*9*9?9*9,30.66,23.49,64.2,0,0,0,0,0,0.5,0,0,9999,9999,9,999999999,0,0.0,0,0,0.0,0.0
2026,7,21,7,10,?9?9?9?9E0?9?9?9*9*9?9?9?9?9?9?9*9?9*9*9?9*9,30.66,23.49,64.2,0,0,0,0,0,0.5,0,0,9999,9999,9,999999999,0,0.0,0,0,0.0,0.0
2026,7,21,7,11,?9?9?9?9E0?9?9?9*9*9?9?9?9?9?9?9*9?9*9*9?9*9,30.66,23.49,64.2,0,0,0,0,0,0.5,0,0,9999,9999,9,999999999,0,0.0,0,0,0.0,0.0
2026,7,21,7,12,?9?9?9?9E0?9?9?9*9*9?9?9?9?9?9?9*9?9*9*9?9*9,30.66,23.49,64.2,0,0,0,0,0,0.5,0,0,9999,9999,9,999999999,0,0.0,0,0,0.0,0.0
2026,7,21,7,13,?9?9?9?9E0?9?9?9*9*9?9?9?9?9?9?9*9?9*9*9?9*9,30.66,23.49,64.2,0,0,0,0,0,0.5,0,0,9999,9999,9,999999999,0,0.0,0,0,0.0,0.0
2026,7,21,7,14,?9?9?9?9E0?9?9?9*9*9?9?9?9?9?9?9*9?9*9*9?9*9,30.66,23.49,64.2,0,0,0,0,0,0.5,0,0,9999,9999,9,999999999,0,0.0,0,0,0.0,0.0
2026,7,21,7,15,?9?9?9?9E0?9?9?9*9*9?9?9?9?9?9?9*9?9*9*9?9*9,30.66,23.49,64.2,0,0,0,0,0,0.5,0,0,9999,9999,9,999999999,0,0.0,0,0,0.0,0.0
2026,7,21,7,16,?9?9?9?9E0?9?9?9*9*9?9?9?9?9?9?9*9?9*9*9?9*9,30.66,23.49,64.2,0,0,0,0,0,0.5,0,0,9999,9999,9,999999999,0,0.0,0,0,0.0,0.0
2026,7,21,7,17,?9?9?9?9E0?9?9?9*9*9?9?9?9?9?9?9*9?9*9*9?9*9,30.66,23.49,64.2,0,0,0,0,0,0.5,0,0,9999,9999,9,999999999,0,0.0,0,0,0.0,0.0
2026,7,21,7,18,?9?9?9?9E0?9?9?9*9*9?9?9?9?9?9?9*9?9*9*9?9*9,30.66,23.49,64.2,0,0,0,0,0,0.5,0,0,9999,9999,9,999999999,0,0.0,0,0,0.0,0.0
2026,7,21,7,19,?9?9?9?9E0?9?9?9*9*9?9?9?9?9?9?9*9?9*9*9?9*9,30.66,23.49,64.2,0,0,0,0,0,0.5,0,0,9999,9999,9,999999999,0,0.0,0,0,0.0,0.0
2026,7,21,7,20,?9?9?9?9E0?9?9?9*9*9?9?9?9?9?9?9*9?9*9*9?9*9,30.66,23.49,64.2,0,0,0,0,0,0.5,0,0,9999,9999,9,999999999,0,0.0,0,0,0.0,0.0
2026,7,21,7,21,?9?9?9?9E0?9?9?9*9*9?9?9?9?9?9?9*9?9*9*9?9*9,30.66,23.49,64.2,0,0,0,0,0,0.5,0,0,9999,9999,9,999999999,0,0.0,0,0,0.0,0.0
2026,7,21,7,22,?9?9?9?9E0?9?9?9*9*9?9?9?9?9?9?9*9?9*9*9?9*9,30.66,23.49,64.2,0,0,0,0,0,0.5,0,0,9999,9999,9,999999999,0,0.0,0,0,0.0,0.0
2026,7,21,7,23,?9?9?9?9E0?9?9?9*9*9?9?9?9?9?9?9*9?9*9*9?9*9,30.66,23.49,64.2,0,0,0,0,0,0.5,0,0,9999,9999,9,999999999,0,0.0,0,0,0.0,0.0
2026,7,21,7,24,?9?9?9?9E0?9?9?9*9*9?9?9?9?9?9?9*9?9*9*9?9*9,30.66,23.49,64.2,0,0,0,0,0,0.5,0,0,9999,9999,9,999999999,0,0.0,0,0,0.0,0.0
2026,7,21,7,25,?9?9?9?9E0?9?9?9*9*9?9?9?9?9?9?9*9?9*9*9?9*9,30.66,23.49,64.2,0,0,0,0,0,0.5,0,0,9999,9999,9,999999999,0,0.0,0,0,0.0,0.0
2026,7,21,7,26,?9?9?9?9E0?9?9?9*9*9?9?9?9?9?9?9*9?9*9*9?9*9,30.66,23.49,64.2,0,0,0,0,0,0.5,0,0,9999,9999,9,999999999,0,0.0,0,0,0.0,0.0
2026,7,21,7,27,?9?9?9?9E0?9?9?9*9*9?9?9?9?9?9?9*9?9*9*9?9*9,30.66,23.49,64.2,0,0,0,0,0,0.5,0,0,9999,9999,9,999999999,0,0.0,0,0,0.0,0.0
2026,7,21,7,28,?9?9?9?9E0?9?9?9*9*9?9?9?9?9?9?9*9?9*9*9?9*9,30.66,23.49,64.2,0,0,0,0,0,0.5,0,0,9999,9999,9,999999999,0,0.0,0,0,0.0,0.0
2026,7,21,7,29,?9?9?9?9E0?9?9?9*9*9?9?9?9?9?9?9*9?9*9*9?9*9,30.66,23.49,64.2,0,0,0,0,0,0.5,0,0,9999,9999,9,999999999,0,0.0,0,0,0.0,0.0
2026,7,21,7,30,?9?9?9?9E0?9?9?9*9*9?9?9?9?9?9?9*9?9*9*9?9*9,30.66,23.49,64.2,0,0,0,0,0,0.5,0,0,9999,9999,9,999999999,0,0.0,0,0,0.0,0.0
2026,7,21,7,31,?9?9?9?9E0?9?9?9*9*9?9?9?9?9?9?9*9?9*9*9?9*9,30.66,23.49,64.2,0,0,0,0,0,0.5,0,0,9999,9999,9,999999999,0,0.0,0,0,0.0,0.0
2026,7,21,7,32,?9?9?9?9E0?9?9?9*9*9?9?9?9?9?9?9*9?9*9*9?9*9,30.66,23.49,64.2,0,0,0,0,0,0.5,0,0,9999,9999,9,999999999,0,0.0,0,0,0.0,0.0
2026,7,21,7,33,?9?9?9?9E0?9?9?9*9*9?9?9?9?9?9?9*9?9*9*9?9*9,30.66,23.49,64.2,0,0,0,0,0,0.5,0,0,9999,9999,9,999999999,0,0.0,0,0,0.0,0.0
2026,7,21,7,34,?9?9?9?9E0?9?9?9*9*9?9?9?9?9?9?9*9?9*9*9?9*9,30.66,23.49,64.2,0,0,0,0,0,0.5,0,0,9999,9999,9,999999999,0,0.0,0,0,0.0,0.0
2026,7,21,7,35,?9?9?9?9E0?9?9?9*9*9?9?9?9?9?9?9*9?9*9*9?9*9,30.66,23.49,64.2,0,0,0,0,0,0.5,0,0,9999,9999,9,999999999,0,0.0,0,0,0.0,0.0
2026,7,21,7,36,?9?9?9?9E0?9?9?9*9*9?9?9?9?9?9?9*9?9*9*9?9*9,30.66,23.49,64.2,0,0,0,0,0,0.5,0,0,9999,9999,9,999999999,0,0.0,0,0,0.0,0.0
2026,7,21,7,37,?9?9?9?9E0?9?9?9*9*9?9?9?9?9?9?9*9?9*9*9?9*9,30.66,23.49,64.2,0,0,0,0,0,0.5,0,0,9999,9999,9,999999999,0,0.0,0,0,0.0,0.0
2026,7,21,7,38,?9?9?9?9E0?9?9?9*9*9?9?9?9?9?9?9*9?9*9*9?9*9,30.66,23.49,64.2,0,0,0,0,0,0.5,0,0,9999,9999,9,999999999,0,0.0,0,0,0.0,0.0
2026,7,21,7,39,?9?9?9?9E0?9?9?9*9*9?9?9?9?9?9?9*9?9*9*9?9*9,30.66,23.49,64.2,0,0,0,0,0,0.5,0,0,9999,9999,9,999999999,0,0.0,0,0,0.0,0.0
2026,7,21,7,40,?9?9?9?9E0?9?9?9*9*9?9?9?9?9?9?9*9?9*9*9?9*9,30.66,23.49,64.2,0,0,0,0,0,0.5,0,0,9999,9999,9,999999999,0,0.0,0,0,0.0,0.0
2026,7,21,7,41,?9?9?9?9E0?9?9?9*9*9?9?9?9?9?9?9*9?9*9*9?9*9,30.66,23.49,64.2,0,0,0,0,0,0.5,0,0,9999,9999,9,999999999,0,0.0,0,0,0.0,0.0
2026,7,21,7,42,?9?9?9?9E0?9?9?9*9*9?9?9?9?9?9?9*9?9*9*9?9*9,30.66,23.49,64.2,0,0,0,0,0,0.5,0,0,9999,9999,9,999999999,0,0.0,0,0,0.0,0.0
2026,7,21,7,43,?9?9?9?9E0?9?9?9*9*9?9?9?9?9?9?9*9?9*9*9?9*9,30.66,23.49,64.2,0,0,0,0,0,0.5,0,0,9999,9999,9,999999999,0,0.0,0,0,0.0,0.0
2026,7,21,7,44,?9?9?9?9E0?9?9?9*9*9?9?9?9?9?9?9*9?9*9*9?9*9,30.66,23.49,64.2,0,0,0,0,0,0.5,0,0,9999,9999,9,999999999,0,0.0,0,0,0.0,0.0
2026,7,21,7,45,?9?9?9?9E0?9?9?9*9*9?9?9?9?9?9?9*9?9*9*9?9*9,30.66,23.49,64.2,0,0,0,0,0,0.5,0,0,9999,9999,9,999999999,0,0.0,0,0,0.0,0.0
2026,7,21,7,46,?9?9?9?9E0?9?9?9*9*9?9?9?9?9?9?9*9?9*9*9?9*9,30.66,23.49,64.2,0,0,0,0,0,0.5,0,0,9999,9999,9,999999999,0,0.0,0,0,0.0,0.0
2026,7,21,7,47,?9?9?9?9E0?9?9?9*9*9?9?9?9?9?9?9*9?9*9*9?9*9,30.66,23.49,64.2,0,0,0,0,0,0.5,0,0,9999,9999,9,999999999,0,0.0,0,0,0.0,0.0
2026,7,21,7,48,?9?9?9?9E0?9?9?9*9*9?9?9?9?9?9?9*9?9*9*9?9*9,30.66,23.49,64.2,0,0,0,0,0,0.5,0,0,9999,9999,9,999999999,0,0.0,0,0,0.0,0.0
2026,7,21,7,49,?9?9?9?9E0?9?9?9*9*9?9?9?9?9?9?9*9?9*9*9?9*9,30.66,23.49,64.2,0,0,0,0,0,0.5,0,0,9999,9999,9,999999999,0,0.0,0,0,0.0,0.0
2026,7,21,7,50,?9?9?9?9E0?9?9?9*9*9?9?9?9?9?9?9*9?9*9*9?9*9,30.66,23.49,64.2,0,0,0,0,0,0.5,0,0,9999,9999,9,999999999,0,0.0,0,0,0.0,0.0
2026,7,21,7,51,?9?9?9?9E0?9?9?9*9*9?9?9?9?9?9?9*9?9*9*9?9*9,30.66,23.49,64.2,0,0,0,0,0,0.5,0,0,9999,9999,9,999999999,0,0.0,0,0,0.0,0.0
2026,7,21,7,52,?9?9?9?9E0?9?9?9*9*9?9?9?9?9?9?9*9?9*9*9?9*9,30.66,23.49,64.2,0,0,0,0,0,0.5,0,0,9999,9999,9,999999999,0,0.0,0,0,0.0,0.0
2026,7,21,7,53,?9?9?9?9E0?9?9?9*9*9?9?9?9?9?9?9*9?9*9*9?9*9,30.66,23.49,64.2,0,0,0,0,0,0.5,0,0,9999,9999,9,999999999,0,0.0,0,0,0.0,0.0
2026,7,21,7,54,?9?9?9?9E0?9?9?9*9*9?9?9?9?9?9?9*9?9*9*9?9*9,30.66,23.49,64.2,0,0,0,0,0,0.5,0,0,9999,9999,9,999999999,0,0.0,0,0,0.0,0.0
2026,7,21,7,55,?9?9?9?9E0?9?9?9*9*9?9?9?9?9?9?9*9?9*9*9?9*9,30.66,23.49,64.2,0,0,0,0,0,0.5,0,0,9999,9999,9,999999999,0,0.0,0,0,0.0,0.0
2026,7,21,7,56,?9?9?9?9E0?9?9?9*9*9?9?9?9?9?9?9*9?9*9*9?9*9,30.66,23.49,64.2,0,0,0,0,0,0.5,0,0,9999,9999,9,999999999,0,0.0,0,0,0.0,0.0
2026,7,21,7,57,?9?9?9?9E0?9?9?9*9*9?9?9?9?9?9?9*9?9*9*9?9*9,30.66,23.49,64.2,0,0,0,0,0,0.5,0,0,9999,9999,9,999999999,0,0.0,0,0,0.0,0.0
2026,7,21,7,58,?9?9?9?9E0?9?9?9*9*9?9?9?9?9?9?9*9?9*9*9?9*9,30.66,23.49,64.2,0,0,0,0,0,0.5,0,0,9999,9999,9,999999999,0,0.0,0,0,0.0,0.0
2026,7,21,7,59,?9?9?9?9E0?9?9?9*9*9?9?9?9?9?9?9*9?9*9*9?9*9,30.66,23.49,64.2,0,0,0,0,0,0.5,0,0,9999,9999,9,999999999,0,0.0,0,0,0.0,0.0
2026,7,21,7,60,?9?9?9?9E0?9?9?9*9*9?9?9?9?9?9?9*9?9*9*9?9*9,30.66,23.49,64.2,0,0,0,0,0,0.5,0,0,9999,9999,9,999999999,0,0.0,0,0,0.0,0.0
2026,7,21,8,1,?9?9?9?9E0?9?9?9*9*9?9?9?9?9?9?9*9?9*9*9?9*9,30.66,23.49,64.2,0,0,0,0,0,0.5,0,0,9999,9999,9,999999999,0,0.0,0,0,0.0,0.0
2026,7,21,8,2,?9?9?9?9E0?9?9?9*9*9?9?9?9?9?9?9*9?9*9*9?9*9,30.66,23.49,64.2,0,0,0,0,0,0.5,0,0,9999,9999,9,999999999,0,0.0,0,0,0.0,0.0
2026,7,21,8,3,?9?9?9?9E0?9?9?9*9*9?9?9?9?9?9?9*9?9*9*9?9*9,30.66,23.49,64.2,0,0,0,0,0,0.5,0,0,9999,9999,9,999999999,0,0.0,0,0,0.0,0.0
2026,7,21,8,4,?9?9?9?9E0?9?9?9*9*9?9?9?9?9?9?9*9?9*9*9?9*9,30.66,23.49,64.2,0,0,0,0,0,0.5,0,0,9999,9999,9,999999999,0,0.0,0,0,0.0,0.0
2026,7,21,8,5,?9?9?9?9E0?9?9?9*9*9?9?9?9?9?9?9*9?9*9*9?9*9,30.66,23.49,64.2,0,0,0,0,0,0.5,0,0,9999,9999,9,999999999,0,0.0,0,0,0.0,0.0
2026,7,21,8,6,?9?9?9?9E0?9?9?9*9*9?9?9?9?9?9?9*9?9*9*9?9*9,30.66,23.49,64.2,0,0,0,0,0,0.5,0,0,9999,9999,9,999999999,0,0.0,0,0,0.0,0.0
2026,7,21,8,7,?9?9?9?9E0?9?9?9*9*9?9?9?9?9?9?9*9?9*9*9?9*9,30.66,23.49,64.2,0,0,0,0,0,0.5,0,0,9999,9999,9,999999999,0,0.0,0,0,0.0,0.0
2026,7,21,8,8,?9?9?9?9E0?9?9?9*9*9?9?9?9?9?9?9*9?9*9*9?9*9,30.66,23.49,64.2,0,0,0,0,0,0.5,0,0,9999,9999,9,999999999,0,0.0,0,0,0.0,0.0
2026,7,21,8,9,?9?9?9?9E0?9?9?9*9*9?9?9?9?9?9?9*9?9*9*9?9*9,30.66,23.49,64.2,0,0,0,0,0,0.5,0,0,9999,9999,9,999999999,0,0.0,0,0,0.0,0.0
2026,7,21,8,10,?9?9?9?9E0?9?9?9*9*9?9?9?9?9?9?9*9?9*9*9?9*9,30.66,23.49,64.2,0,0,0,0,0,0.5,0,0,9999,9999,9,999999999,0,0.0,0,0,0.0,0.0
2026,7,21,8,11,?9?9?9?9E0?9?9?9*9*9?9?9?9?9?9?9*9?9*9*9?9*9,30.66,23.49,64.2,0,0,0,0,0,0.5,0,0,9999,9999,9,999999999,0,0.0,0,0,0.0,0.0
2026,7,21,8,12,?9?9?9?9E0?9?9?9*9*9?9?9?9?9?9?9*9?9*9*9?9*9,30.66,23.49,64.2,0,0,0,0,0,0.5,0,0,9999,9999,9,999999999,0,0.0,0,0,0.0,0.0
2026,7,21,8,13,?9?9?9?9E0?9?9?9*9*9?9?9?9?9?9?9*9?9*9*9?9*9,30.66,23.49,64.2,0,0,0,0,0,0.5,0,0,9999,9999,9,999999999,0,0.0,0,0,0.0,0.0
2026,7,21,8,14,?9?9?9?9E0?9?9?9*9*9?9?9?9?9?9?9*9?9*9*9?9*9,30.66,23.49,64.2,0,0,0,0,0,0.5,0,0,9999,9999,9,999999999,0,0.0,0,0,0.0,0.0
2026,7,21,8,15,?9?9?9?9E0?9?9?9*9*9?9?9?9?9?9?9*9?9*9*9?9*9,30.66,23.49,64.2,0,0,0,0,0,0.5,0,0,9999,9999,9,999999999,0,0.0,0,0,0.0,0.0
2026,7,21,8,16,?9?9?9?9E0?9?9?9*9*9?9?9?9?9?9?9*9?9*9*9?9*9,30.66,23.49,64.2,0,0,0,0,0,0.5,0,0,9999,9999,9,999999999,0,0.0,0,0,0.0,0.0
2026,7,21,8,17,?9?9?9?9E0?9?9?9*9*9?9?9?9?9?9?9*9?9*9*9?9*9,30.66,23.49,64.2,0,0,0,0,0,0.5,0,0,9999,9999,9,999999999,0,0.0,0,0,0.0,0.0
2026,7,21,8,18,?9?9?9?9E0?9?9?9*9*9?9?9?9?9?9?9*9?9*9*9?9*9,30.66,23.49,64.2,0,0,0,0,0,0.5,0,0,9999,9999,9,999999999,0,0.0,0,0,0.0,0.0
2026,7,21,8,19,?9?9?9?9E0?9?9?9*9*9?9?9?9?9?9?9*9?9*9*9?9*9,30.66,23.49,64.2,0,0,0,0,0,0.5,0,0,9999,9999,9,999999999,0,0.0,0,0,0.0,0.0
2026,7,21,8,20,?9?9?9?9E0?9?9?9*9*9?9?9?9?9?9?9*9?9*9*9?9*9,30.66,23.49,64.2,0,0,0,0,0,0.5,0,0,9999,9999,9,999999999,0,0.0,0,0,0.0,0.0
2026,7,21,8,21,?9?9?9?9E0?9?9?9*9*9?9?9?9?9?9?9*9?9*9*9?9*9,30.66,23.49,64.2,0,0,0,0,0,0.5,0,0,9999,9999,9,999999999,0,0.0,0,0,0.0,0.0
2026,7,21,8,22,?9?9?9?9E0?9?9?9*9*9?9?9?9?9?9?9*9?9*9*9?9*9,30.66,23.49,64.2,0,0,0,0,0,0.5,0,0,9999,9999,9,999999999,0,0.0,0,0,0.0,0.0
2026,7,21,8,23,?9?9?9?9E0?9?9?9*9*9?9?9?9?9?9?9*9?9*9*9?9*9,30.66,23.49,64.2,0,0,0,0,0,0.5,0,0,9999,9999,9,999999999,0,0.0,0,0,0.0,0.0
2026,7,21,8,24,?9?9?9?9E0?9?9?9*9*9?9?9?9?9?9?9*9?9*9*9?9*9,30.66,23.49,64.2,0,0,0,0,0,0.5,0,0,9999,9999,9,999999999,0,0.0,0,0,0.0,0.0
2026,7,21,8,25,?9?9?9?9E0?9?9?9*9*9?9?9?9?9?9?9*9?9*9*9?9*9,30.66,23.49,64.2,0,0,0,0,0,0.5,0,0,9999,9999,9,999999999,0,0.0,0,0,0.0,0.0
2026,7,21,8,26,?9?9?9?9E0?9?9?9*9*9?9?9?9?9?9?9*9?9*9*9?9*9,30.66,23.49,64.2,0,0,0,0,0,0.5,0,0,9999,9999,9,999999999,0,0.0,0,0,0.0,0.0
2026,7,21,8,27,?9?9?9?9E0?9?9?9*9*9?9?9?9?9?9?9*9?9*9*9?9*9,30.66,23.49,64.2,0,0,0,0,0,0.5,0,0,9999,9999,9,999999999,0,0.0,0,0,0.0,0.0
2026,7,21,8,28,?9?9?9?9E0?9?9?9*9*9?9?9?9?9?9?9*9?9*9*9?9*9,30.66,23.49,64.2,0,0,0,0,0,0.5,0,0,9999,9999,9,999999999,0,0.0,0,0,0.0,0.0
2026,7,21,8,29,?9?9?9?9E0?9?9?9*9*9?9?9?9?9?9?9*9?9*9*9?9*9,30.66,23.49,64.2,0,0,0,0,0,0.5,0,0,9999,9999,9,999999999,0,0.0,0,0,0.0,0.0
2026,7,21,8,30,?9?9?9?9E0?9?9?9*9*9?9?9?9?9?9?9*9?9*9*9?9*9,30.66,23.49,64.2,0,0,0,0,0,0.5,0,0,9999,9999,9,999999999,0,0.0,0,0,0.0,0.0
2026,7,21,8,31,?9?9?9?9E0?9?9?9*9*9?9?9?9?9?9?9*9?9*9*9?9*9,30.66,23.49,64.2,0,0,0,0,0,0.5,0,0,9999,9999,9,999999999,0,0.0,0,0,0.0,0.0
2026,7,21,8,32,?9?9?9?9E0?9?9?9*9*9?9?9?9?9?9?9*9?9*9*9?9*9,30.66,23.49,64.2,0,0,0,0,0,0.5,0,0,9999,9999,9,999999999,0,0.0,0,0,0.0,0.0
2026,7,21,8,33,?9?9?9?9E0?9?9?9*9*9?9?9?9?9?9?9*9?9*9*9?9*9,30.66,23.49,64.2,0,0,0,0,0,0.5,0,0,9999,9999,9,999999999,0,0.0,0,0,0.0,0.0
2026,7,21,8,34,?9?9?9?9E0?9?9?9*9*9?9?9?9?9?9?9*9?9*9*9?9*9,30.66,23.49,64.2,0,0,0,0,0,0.5,0,0,9999,9999,9,999999999,0,0.0,0,0,0.0,0.0
2026,7,21,8,35,?9?9?9?9E0?9?9?9*9*9?9?9?9?9?9?9*9?9*9*9?9*9,30.66,23.49,64.2,0,0,0,0,0,0.5,0,0,9999,9999,9,999999999,0,0.0,0,0,0.0,0.0
2026,7,21,8,36,?9?9?9?9E0?9?9?9*9*9?9?9?9?9?9?9*9?9*9*9?9*9,30.66,23.49,64.2,0,0,0,0,0,0.5,0,0,9999,9999,9,999999999,0,0.0,0,0,0.0,0.0
2026,7,21,8,37,?9?9?9?9E0?9?9?9*9*9?9?9?9?9?9?9*9?9*9*9?9*9,30.66,23.49,64.2,0,0,0,0,0,0.5,0,0,9999,9999,9,999999999,0,0.0,0,0,0.0,0.0
2026,7,21,8,38,?9?9?9?9E0?9?9?9*9*9?9?9?9?9?9?9*9?9*9*9?9*9,30.66,23.49,64.2,0,0,0,0,0,0.5,0,0,9999,9999,9,999999999,0,0.0,0,0,0.0,0.0
2026,7,21,8,39,?9?9?9?9E0?9?9?9*9*9?9?9?9?9?9?9*9?9*9*9?9*9,30.66,23.49,64.2,0,0,0,0,0,0.5,0,0,9999,9999,9,999999999,0,0.0,0,0,0.0,0.0
2026,7,21,8,40,?9?9?9?9E0?9?9?9*9*9?9?9?9?9?9?9*9?9*9*9?9*9,30.66,23.49,64.2,0,0,0,0,0,0.5,0,0,9999,9999,9,999999999,0,0.0,0,0,0.0,0.0
2026,7,21,8,41,?9?9?9?9E0?9?9?9*9*9?9?9?9?9?9?9*9?9*9*9?9*9,30.66,23.49,64.2,0,0,0,0,0,0.5,0,0,9999,9999,9,999999999,0,0.0,0,0,0.0,0.0
2026,7,21,8,42,?9?9?9?9E0?9?9?9*9*9?9?9?9?9?9?9*9?9*9*9?9*9,30.66,23.49,64.2,0,0,0,0,0,0.5,0,0,9999,9999,9,999999999,0,0.0,0,0,0.0,0.0
2026,7,21,8,43,?9?9?9?9E0?9?9?9*9*9?9?9?9?9?9?9*9?9*9*9?9*9,30.66,23.49,64.2,0,0,0,0,0,0.5,0,0,9999,9999,9,999999999,0,0.0,0,0,0.0,0.0
2026,7,21,8,44,?9?9?9?9E0?9?9?9*9*9?9?9?9?9?9?9*9?9*9*9?9*9,30.66,23.49,64.2,0,0,0,0,0,0.5,0,0,9999,9999,9,999999999,0,0.0,0,0,0.0,0.0
2026,7,21,8,45,?9?9?9?9E0?9?9?9*9*9?9?9?9?9?9?9*9?9*9*9?9*9,30.66,23.49,64.2,0,0,0,0,0,0.5,0,0,9999,9999,9,999999999,0,0.0,0,0,0.0,0.0
2026,7,21,8,46,?9?9?9?9E0?9?9?9*9*9?9?9?9?9?9?9*9?9*9*9?9*9,30.66,23.49,64.2,0,0,0,0,0,0.5,0,0,9999,9999,9,999999999,0,0.0,0,0,0.0,0.0
2026,7,21,8,47,?9?9?9?9E0?9?9?9*9*9?9?9?9?9?9?9*9?9*9*9?9*9,30.66,23.49,64.2,0,0,0,0,0,0.5,0,0,9999,9999,9,999999999,0,0.0,0,0,0.0,0.0
2026,7,21,8,48,?9?9?9?9E0?9?9?9*9*9?9?9?9?9?9?9*9?9*9*9?9*9,30.66,23.49,64.2,0,0,0,0,0,0.5,0,0,9999,9999,9,999999999,0,0.0,0,0,0.0,0.0
2026,7,21,8,49,?9?9?9?9E0?9?9?9*9*9?9?9?9?9?9?9*9?9*9*9?9*9,30.66,23.49,64.2,0,0,0,0,0,0.5,0,0,9999,9999,9,999999999,0,0.0,0,0,0.0,0.0
2026,7,21,8,50,?9?9?9?9E0?9?9?9*9*9?9?9?9?9?9?9*9?9*9*9?9*9,30.66,23.49,64.2,0,0,0,0,0,0.5,0,0,9999,9999,9,999999999,0,0.0,0,0,0.0,0.0
2026,7,21,8,51,?9?9?9?9E0?9?9?9*9*9?9?9?9?9?9?9*9?9*9*9?9*9,30.66,23.49,64.2,0,0,0,0,0,0.5,0,0,9999,9999,9,999999999,0,0.0,0,0,0.0,0.0
2026,7,21,8,52,?9?9?9?9E0?9?9?9*9*9?9?9?9?9?9?9*9?9*9*9?9*9,30.66,23.49,64.2,0,0,0,0,0,0.5,0,0,9999,9999,9,999999999,0,0.0,0,0,0.0,0.0
2026,7,21,8,53,?9?9?9?9E0?9?9?9*9*9?9?9?9?9?9?9*9?9*9*9?9*9,30.66,23.49,64.2,0,0,0,0,0,0.5,0,0,9999,9999,9,999999999,0,0.0,0,0,0.0,0.0
2026,7,21,8,54,?9?9?9?9E0?9?9?9*9*9?9?9?9?9?9?9*9?9*9*9?9*9,30.66,23.49,64.2,0,0,0,0,0,0.5,0,0,9999,9999,9,999999999,0,0.0,0,0,0.0,0.0
2026,7,21,8,55,?9?9?9?9E0?9?9?9*9*9?9?9?9?9?9?9*9?9*9*9?9*9,30.66,23.49,64.2,0,0,0,0,0,0.5,0,0,9999,9999,9,999999999,0,0.0,0,0,0.0,0.0
2026,7,21,8,56,?9?9?9?9E0?9?9?9*9*9?9?9?9?9?9?9*9?9*9*9?9*9,30.66,23.49,64.2,0,0,0,0,0,0.5,0,0,9999,9999,9,999999999,0,0.0,0,0,0.0,0.0
2026,7,21,8,57,?9?9?9?9E0?9?9?9*9*9?9?9?9?9?9?9*9?9*9*9?9*9,30.66,23.49,64.2,0,0,0,0,0,0.5,0,0,9999,9999,9,999999999,0,0.0,0,0,0.0,0.0
2026,7,21,8,58,?9?9?9?9E0?9?9?9*9*9?9?9?9?9?9?9*9?9*9*9?9*9,30.66,23.49,64.2,0,0,0,0,0,0.5,0,0,9999,9999,9,999999999,0,0.0,0,0,0.0,0.0
2026,7,21,8,59,?9?9?9?9E0?9?9?9*9*9?9?9?9?9?9?9*9?9*9*9?9*9,30.66,23.49,64.2,0,0,0,0,0,0.5,0,0,9999,9999,9,999999999,0,0.0,0,0,0.0,0.0
2026,7,21,8,60,?9?9?9?9E0?9?9?9*9*9?9?9?9?9?9?9*9?9*9*9?9*9,30.66,23.49,64.2,0,0,0,0,0,0.5,0,0,9999,9999,9,999999999,0,0.0,0,0,0.0,0.0
2026,7,21,9,1,?9?9?9?9E0?9?9?9*9*9?9?9?9?9?9?9*9?9*9*9?9*9,30.66,23.49,64.2,0,0,0,0,0,0.5,0,0,9999,9999,9,999999999,0,0.0,0,0,0.0,0.0
2026,7,21,9,2,?9?9?9?9E0?9?9?9*9*9?9?9?9?9?9?9*9?9*9*9?9*9,30.66,23.49,64.2,0,0,0,0,0,0.5,0,0,9999,9999,9,999999999,0,0.0,0,0,0.0,0.0
2026,7,21,9,3,?9?9?9?9E0?9?9?9*9*9?9?9?9?9?9?9*9?9*9*9?9*9,30.66,23.49,64.2,0,0,0,0,0,0.5,0,0,9999,9999,9,999999999,0,0.0,0,0,0.0,0.0
2026,7,21,9,4,?9?9?9?9E0?9?9?9*9*9?9?9?9?9?9?9*9?9*9*9?9*9,30.66,23.49,64.2,0,0,0,0,0,0.5,0,0,9999,9999,9,999999999,0,0.0,0,0,0.0,0.0
2026,7,21,9,5,?9?9?9?9E0?9?9?9*9*9?9?9?9?9?9?9*9?9*9*9?9*9,30.66,23.49,64.2,0,0,0,0,0,0.5,0,0,9999,9999,9,999999999,0,0.0,0,0,0.0,0.0
2026,7,21,9,6,?9?9?9?9E0?9?9?9*9*9?9?9?9?9?9?9*9?9*9*9?9*9,30.66,23.49,64.2,0,0,0,0,0,0.5,0,0,9999,9999,9,999999999,0,0.0,0,0,0.0,0.0
2026,7,21,9,7,?9?9?9?9E0?9?9?9*9*9?9?9?9?9?9?9*9?9*9*9?9*9,30.66,23.49,64.2,0,0,0,0,0,0.5,0,0,9999,9999,9,999999999,0,0.0,0,0,0.0,0.0
2026,7,21,9,8,?9?9?9?9E0?9?9?9*9*9?9?9?9?9?9?9*9?9*9*9?9*9,30.66,23.49,64.2,0,0,0,0,0,0.5,0,0,9999,9999,9,999999999,0,0.0,0,0,0.0,0.0
2026,7,21,9,9,?9?9?9?9E0?9?9?9*9*9?9?9?9?9?9?9*9?9*9*9?9*9,30.66,23.49,64.2,0,0,0,0,0,0.5,0,0,9999,9999,9,999999999,0,0.0,0,0,0.0,0.0
2026,7,21,9,10,?9?9?9?9E0?9?9?9*9*9?9?9?9?9?9?9*9?9*9*9?9*9,30.66,23.49,64.2,0,0,0,0,0,0.5,0,0,9999,9999,9,999999999,0,0.0,0,0,0.0,0.0
2026,7,21,9,11,?9?9?9?9E0?9?9?9*9*9?9?9?9?9?9?9*9?9*9*9?9*9,30.66,23.49,64.2,0,0,0,0,0,0.5,0,0,9999,9999,9,999999999,0,0.0,0,0,0.0,0.0
2026,7,21,9,12,?9?9?9?9E0?9?9?9*9*9?9?9?9?9?9?9*9?9*9*9?9*9,30.66,23.49,64.2,0,0,0,0,0,0.5,0,0,9999,9999,9,999999999,0,0.0,0,0,0.0,0.0
2026,7,21,9,13,?9?9?9?9E0?9?9?9*9*9?9?9?9?9?9?9*9?9*9*9?9*9,30.66,23.49,64.2,0,0,0,0,0,0.5,0,0,9999,9999,9,999999999,0,0.0,0,0,0.0,0.0
2026,7,21,9,14,?9?9?9?9E0?9?9?9*9*9?9?9?9?9?9?9*9?9*9*9?9*9,30.66,23.49,64.2,0,0,0,0,0,0.5,0,0,9999,9999,9,999999999,0,0.0,0,0,0.0,0.0
2026,7,21,9,15,?9?9?9?9E0?9?9?9*9*9?9?9?9?9?9?9*9?9*9*9?9*9,30.66,23.49,64.2,0,0,0,0,0,0.5,0,0,9999,9999,9,999999999,0,0.0,0,0,0.0,0.0
2026,7,21,9,16,?9?9?9?9E0?9?9?9*9*9?9?9?9?9?9?9*9?9*9*9?9*9,30.66,23.49,64.2,0,0,0,0,0,0.5,0,0,9999,9999,9,999999999,0,0.0,0,0,0.0,0.0
2026,7,21,9,17,?9?9?9?9E0?9?9?9*9*9?9?9?9?9?9?9*9?9*9*9?9*9,30.66,23.49,64.2,0,0,0,0,0,0.5,0,0,9999,9999,9,999999999,0,0.0,0,0,0.0,0.0
2026,7,21,9,18,?9?9?9?9E0?9?9?9*9*9?9?9?9?9?9?9*9?9*9*9?9*9,30.66,23.49,64.2,0,0,0,0,0,0.5,0,0,9999,9999,9,999999999,0,0.0,0,0,0.0,0.0
2026,7,21,9,19,?9?9?9?9E0?9?9?9*9*9?9?9?9?9?9?9*9?9*9*9?9*9,30.66,23.49,64.2,0,0,0,0,0,0.5,0,0,9999,9999,9,999999999,0,0.0,0,0,0.0,0.0
2026,7,21,9,20,?9?9?9?9E0?9?9?9*9*9?9?9?9?9?9?9*9?9*9*9?9*9,30.66,23.49,64.2,0,0,0,0,0,0.5,0,0,9999,9999,9,999999999,0,0.0,0,0,0.0,0.0
2026,7,21,9,21,?9?9?9?9E0?9?9?9*9*9?9?9?9?9?9?9*9?9*9*9?9*9,30.66,23.49,64.2,0,0,0,0,0,0.5,0,0,9999,9999,9,999999999,0,0.0,0,0,0.0,0.0
2026,7,21,9,22,?9?9?9?9E0?9?9?9*9*9?9?9?9?9?9?9*9?9*9*9?9*9,30.66,23.49,64.2,0,0,0,0,0,0.5,0,0,9999,9999,9,999999999,0,0.0,0,0,0.0,0.0
2026,7,21,9,23,?9?9?9?9E0?9?9?9*9*9?9?9?9?9?9?9*9?9*9*9?9*9,30.66,23.49,64.2,0,0,0,0,0,0.5,0,0,9999,9999,9,999999999,0,0.0,0,0,0.0,0.0
2026,7,21,9,24,?9?9?9?9E0?9?9?9*9*9?9?9?9?9?9?9*9?9*9*9?9*9,30.66,23.49,64.2,0,0,0,0,0,0.5,0,0,9999,9999,9,999999999,0,0.0,0,0,0.0,0.0
2026,7,21,9,25,?9?9?9?9E0?9?9?9*9*9?9?9?9?9?9?9*9?9*9*9?9*9,30.66,23.49,64.2,0,0,0,0,0,0.5,0,0,9999,9999,9,999999999,0,0.0,0,0,0.0,0.0
2026,7,21,9,26,?9?9?9?9E0?9?9?9*9*9?9?9?9?9?9?9*9?9*9*9?9*9,30.66,23.49,64.2,0,0,0,0,0,0.5,0,0,9999,9999,9,999999999,0,0.0,0,0,0.0,0.0
2026,7,21,9,27,?9?9?9?9E0?9?9?9*9*9?9?9?9?9?9?9*9?9*9*9?9*9,30.66,23.49,64.2,0,0,0,0,0,0.5,0,0,9999,9999,9,999999999,0,0.0,0,0,0.0,0.0
2026,7,21,9,28,?9?9?9?9E0?9?9?9*9*9?9?9?9?9?9?9*9?9*9*9?9*9,30.66,23.49,64.2,0,0,0,0,0,0.5,0,0,9999,9999,9,999999999,0,0.0,0,0,0.0,0.0
2026,7,21,9,29,?9?9?9?9E0?9?9?9*9*9?9?9?9?9?9?9*9?9*9*9?9*9,30.66,23.49,64.2,0,0,0,0,0,0.5,0,0,9999,9999,9,999999999,0,0.0,0,0,0.0,0.0
2026,7,21,9,30,?9?9?9?9E0?9?9?9*9*9?9?9?9?9?9?9*9?9*9*9?9*9,30.66,23.49,64.2,0,0,0,0,0,0.5,0,0,9999,9999,9,999999999,0,0.0,0,0,0.0,0.0
2026,7,21,9,31,?9?9?9?9E0?9?9?9*9*9?9?9?9?9?9?9*9?9*9*9?9*9,30.66,23.49,64.2,0,0,0,0,0,0.5,0,0,9999,9999,9,999999999,0,0.0,0,0,0.0,0.0
2026,7,21,9,32,?9?9?9?9E0?9?9?9*9*9?9?9?9?9?9?9*9?9*9*9?9*9,30.66,23.49,64.2,0,0,0,0,0,0.5,0,0,9999,9999,9,999999999,0,0.0,0,0,0.0,0.0
2026,7,21,9,33,?9?9?9?9E0?9?9?9*9*9?9?9?9?9?9?9*9?9*9*9?9*9,30.66,23.49,64.2,0,0,0,0,0,0.5,0,0,9999,9999,9,999999999,0,0.0,0,0,0.0,0.0
2026,7,21,9,34,?9?9?9?9E0?9?9?9*9*9?9?9?9?9?9?9*9?9*9*9?9*9,30.66,23.49,64.2,0,0,0,0,0,0.5,0,0,9999,9999,9,999999999,0,0.0,0,0,0.0,0.0
2026,7,21,9,35,?9?9?9?9E0?9?9?9*9*9?9?9?9?9?9?9*9?9*9*9?9*9,30.66,23.49,64.2,0,0,0,0,0,0.5,0,0,9999,9999,9,999999999,0,0.0,0,0,0.0,0.0
2026,7,21,9,36,?9?9?9?9E0?9?9?9*9*9?9?9?9?9?9?9*9?9*9*9?9*9,30.66,23.49,64.2,0,0,0,0,0,0.5,0,0,9999,9999,9,999999999,0,0.0,0,0,0.0,0.0
2026,7,21,9,37,?9?9?9?9E0?9?9?9*9*9?9?9?9?9?9?9*9?9*9*9?9*9,30.66,23.49,64.2,0,0,0,0,0,0.5,0,0,9999,9999,9,999999999,0,0.0,0,0,0.0,0.0
2026,7,21,9,38,?9?9?9?9E0?9?9?9*9*9?9?9?9?9?9?9*9?9*9*9?9*9,30.66,23.49,64.2,0,0,0,0,0,0.5,0,0,9999,9999,9,999999999,0,0.0,0,0,0.0,0.0
2026,7,21,9,39,?9?9?9?9E0?9?9?9*9*9?9?9?9?9?9?9*9?9*9*9?9*9,30.66,23.49,64.2,0,0,0,0,0,0.5,0,0,9999,9999,9,999999999,0,0.0,0,0,0.0,0.0
2026,7,21,9,40,?9?9?9?9E0?9?9?9*9*9?9?9?9?9?9?9*9?9*9*9?9*9,30.66,23.49,64.2,0,0,0,0,0,0.5,0,0,9999,9999,9,999999999,0,0.0,0,0,0.0,0.0
2026,7,21,9,41,?9?9?9?9E0?9?9?9*9*9?9?9?9?9?9?9*9?9*9*9?9*9,30.66,23.49,64.2,0,0,0,0,0,0.5,0,0,9999,9999,9,999999999,0,0.0,0,0,0.0,0.0
2026,7,21,9,42,?9?9?9?9E0?9?9?9*9*9?9?9?9?9?9?9*9?9*9*9?9*9,30.66,23.49,64.2,0,0,0,0,0,0.5,0,0,9999,9999,9,999999999,0,0.0,0,0,0.0,0.0
2026,7,21,9,43,?9?9?9?9E0?9?9?9*9*9?9?9?9?9?9?9*9?9*9*9?9*9,30.66,23.49,64.2,0,0,0,0,0,0.5,0,0,9999,9999,9,999999999,0,0.0,0,0,0.0,0.0
2026,7,21,9,44,?9?9?9?9E0?9?9?9*9*9?9?9?9?9?9?9*9?9*9*9?9*9,30.66,23.49,64.2,0,0,0,0,0,0.5,0,0,9999,9999,9,999999999,0,0.0,0,0,0.0,0.0
2026,7,21,9,45,?9?9?9?9E0?9?9?9*9*9?9?9?9?9?9?9*9?9*9*9?9*9,30.66,23.49,64.2,0,0,0,0,0,0.5,0,0,9999,9999,9,999999999,0,0.0,0,0,0.0,0.0
2026,7,21,9,46,?9?9?9?9E0?9?9?9*9*9?9?9?9?9?9?9*9?9*9*9?9*9,30.66,23.49,64.2,0,0,0,0,0,0.5,0,0,9999,9999,9,999999999,0,0.0,0,0,0.0,0.0
2026,7,21,9,47,?9?9?9?9E0?9?9?9*9*9?9?9?9?9?9?9*9?9*9*9?9*9,30.66,23.49,64.2,0,0,0,0,0,0.5,0,0,9999,9999,9,999999999,0,0.0,0,0,0.0,0.0
2026,7,21,9,48,?9?9?9?9E0?9?9?9*9*9?9?9?9?9?9?9*9?9*9*9?9*9,30.66,23.49,64.2,0,0,0,0,0,0.5,0,0,9999,9999,9,999999999,0,0.0,0,0,0.0,0.0
2026,7,21,9,49,?9?9?9?9E0?9?9?9*9*9?9?9?9?9?9?9*9?9*9*9?9*9,30.66,23.49,64.2,0,0,0,0,0,0.5,0,0,9999,9999,9,999999999,0,0.0,0,0,0.0,0.0
2026,7,21,9,50,?9?9?9?9E0?9?9?9*9*9?9?9?9?9?9?9*9?9*9*9?9*9,30.66,23.49,64.2,0,0,0,0,0,0.5,0,0,9999,9999,9,999999999,0,0.0,0,0,0.0,0.0
2026,7,21,9,51,?9?9?9?9E0?9?9?9*9*9?9?9?9?9?9?9*9?9*9*9?9*9,30.66,23.49,64.2,0,0,0,0,0,0.5,0,0,9999,9999,9,999999999,0,0.0,0,0,0.0,0.0
2026,7,21,9,52,?9?9?9?9E0?9?9?9*9*9?9?9?9?9?9?9*9?9*9*9?9*9,30.66,23.49,64.2,0,0,0,0,0,0.5,0,0,9999,9999,9,999999999,0,0.0,0,0,0.0,0.0
2026,7,21,9,53,?9?9?9?9E0?9?9?9*9*9?9?9?9?9?9?9*9?9*9*9?9*9,30.66,23.49,64.2,0,0,0,0,0,0.5,0,0,9999,9999,9,999999999,0,0.0,0,0,0.0,0.0
2026,7,21,9,54,?9?9?9?9E0?9?9?9*9*9?9?9?9?9?9?9*9?9*9*9?9*9,30.66,23.49,64.2,0,0,0,0,0,0.5,0,0,9999,9999,9,999999999,0,0.0,0,0,0.0,0.0
2026,7,21,9,55,?9?9?9?9E0?9?9?9*9*9?9?9?9?9?9?9*9?9*9*9?9*9,30.66,23.49,64.2,0,0,0,0,0,0.5,0,0,9999,9999,9,999999999,0,0.0,0,0,0.0,0.0
2026,7,21,9,56,?9?9?9?9E0?9?9?9*9*9?9?9?9?9?9?9*9?9*9*9?9*9,30.66,23.49,64.2,0,0,0,0,0,0.5,0,0,9999,9999,9,999999999,0,0.0,0,0,0.0,0.0
2026,7,21,9,57,?9?9?9?9E0?9?9?9*9*9?9?9?9?9?9?9*9?9*9*9?9*9,30.66,23.49,64.2,0,0,0,0,0,0.5,0,0,9999,9999,9,999999999,0,0.0,0,0,0.0,0.0
2026,7,21,9,58,?9?9?9?9E0?9?9?9*9*9?9?9?9?9?9?9*9?9*9*9?9*9,30.66,23.49,64.2,0,0,0,0,0,0.5,0,0,9999,9999,9,999999999,0,0.0,0,0,0.0,0.0
2026,7,21,9,59,?9?9?9?9E0?9?9?9*9*9?9?9?9?9?9?9*9?9*9*9?9*9,30.66,23.49,64.2,0,0,0,0,0,0.5,0,0,9999,9999,9,999999999,0,0.0,0,0,0.0,0.0
2026,7,21,9,60,?9?9?9?9E0?9?9?9*9*9?9?9?9?9?9?9*9?9*9*9?9*9,30.66,23.49,64.2,0,0,0,0,0,0.5,0,0,9999,9999,9,999999999,0,0.0,0,0,0.0,0.0
2026,7,21,10,1,?9?9?9?9E0?9?9?9*9*9?9?9?9?9?9?9*9?9*9*9?9*9,30.66,23.49,64.2,0,0,0,0,0,0.5,0,0,9999,9999,9,999999999,0,0.0,0,0,0.0,0.0
2026,7,21,10,2,?9?9?9?9E0?9?9?9*9*9?9?9?9?9?9?9*9?9*9*9?9*9,30.66,23.49,64.2,0,0,0,0,0,0.5,0,0,9999,9999,9,999999999,0,0.0,0,0,0.0,0.0
2026,7,21,10,3,?9?9?9?9E0?9?9?9*9*9?9?9?9?9?9?9*9?9*9*9?9*9,30.66,23.49,64.2,0,0,0,0,0,0.5,0,0,9999,9999,9,999999999,0,0.0,0,0,0.0,0.0
2026,7,21,10,4,?9?9?9?9E0?9?9?9*9*9?9?9?9?9?9?9*9?9*9*9?9*9,30.66,23.49,64.2,0,0,0,0,0,0.5,0,0,9999,9999,9,999999999,0,0.0,0,0,0.0,0.0
2026,7,21,10,5,?9?9?9?9E0?9?9?9*9*9?9?9?9?9?9?9*9?9*9*9?9*9,30.66,23.49,64.2,0,0,0,0,0,0.5,0,0,9999,9999,9,999999999,0,0.0,0,0,0.0,0.0
2026,7,21,10,6,?9?9?9?9E0?9?9?9*9*9?9?9?9?9?9?9*9?9*9*9?9*9,30.66,23.49,64.2,0,0,0,0,0,0.5,0,0,9999,9999,9,999999999,0,0.0,0,0,0.0,0.0
2026,7,21,10,7,?9?9?9?9E0?9?9?9*9*9?9?9?9?9?9?9*9?9*9*9?9*9,30.66,23.49,64.2,0,0,0,0,0,0.5,0,0,9999,9999,9,999999999,0,0.0,0,0,0.0,0.0
2026,7,21,10,8,?9?9?9?9E0?9?9?9*9*9?9?9?9?9?9?9*9?9*9*9?9*9,30.66,23.49,64.2,0,0,0,0,0,0.5,0,0,9999,9999,9,999999999,0,0.0,0,0,0.0,0.0
2026,7,21,10,9,?9?9?9?9E0?9?9?9*9*9?9?9?9?9?9?9*9?9*9*9?9*9,30.66,23.49,64.2,0,0,0,0,0,0.5,0,0,9999,9999,9,999999999,0,0.0,0,0,0.0,0.0
2026,7,21,10,10,?9?9?9?9E0?9?9?9*9*9?9?9?9?9?9?9*9?9*9*9?9*9,30.66,23.49,64.2,0,0,0,0,0,0.5,0,0,9999,9999,9,999999999,0,0.0,0,0,0.0,0.0
2026,7,21,10,11,?9?9?9?9E0?9?9?9*9*9?9?9?9?9?9?9*9?9*9*9?9*9,30.66,23.49,64.2,0,0,0,0,0,0.5,0,0,9999,9999,9,999999999,0,0.0,0,0,0.0,0.0
2026,7,21,10,12,?9?9?9?9E0?9?9?9*9*9?9?9?9?9?9?9*9?9*9*9?9*9,30.66,23.49,64.2,0,0,0,0,0,0.5,0,0,9999,9999,9,999999999,0,0.0,0,0,0.0,0.0
2026,7,21,10,13,?9?9?9?9E0?9?9?9*9*9?9?9?9?9?9?9*9?9*9*9?9*9,30.66,23.49,64.2,0,0,0,0,0,0.5,0,0,9999,9999,9,999999999,0,0.0,0,0,0.0,0.0
2026,7,21,10,14,?9?9?9?9E0?9?9?9*9*9?9?9?9?9?9?9*9?9*9*9?9*9,30.66,23.49,64.2,0,0,0,0,0,0.5,0,0,9999,9999,9,999999999,0,0.0,0,0,0.0,0.0
2026,7,21,10,15,?9?9?9?9E0?9?9?9*9*9?9?9?9?9?9?9*9?9*9*9?9*9,30.66,23.49,64.2,0,0,0,0,0,0.5,0,0,9999,9999,9,999999999,0,0.0,0,0,0.0,0.0
2026,7,21,10,16,?9?9?9?9E0?9?9?9*9*9?9?9?9?9?9?9*9?9*9*9?9*9,30.66,23.49,64.2,0,0,0,0,0,0.5,0,0,9999,9999,9,999999999,0,0.0,0,0,0.0,0.0
2026,7,21,10,17,?9?9?9?9E0?9?9?9*9*9?9?9?9?9?9?9*9?9*9*9?9*9,30.66,23.49,64.2,0,0,0,0,0,0.5,0,0,9999,9999,9,999999999,0,0.0,0,0,0.0,0.0
2026,7,21,10,18,?9?9?9?9E0?9?9?9*9*9?9?9?9?9?9?9*9?9*9*9?9*9,30.66,23.49,64.2,0,0,0,0,0,0.5,0,0,9999,9999,9,999999999,0,0.0,0,0,0.0,0.0
2026,7,21,10,19,?9?9?9?9E0?9?9?9*9*9?9?9?9?9?9?9*9?9*9*9?9*9,30.66,23.49,64.2,0,0,0,0,0,0.5,0,0,9999,9999,9,999999999,0,0.0,0,0,0.0,0.0
2026,7,21,10,20,?9?9?9?9E0?9?9?9*9*9?9?9?9?9?9?9*9?9*9*9?9*9,30.66,23.49,64.2,0,0,0,0,0,0.5,0,0,9999,9999,9,999999999,0,0.0,0,0,0.0,0.0
2026,7,21,10,21,?9?9?9?9E0?9?9?9*9*9?9?9?9?9?9?9*9?9*9*9?9*9,30.66,23.49,64.2,0,0,0,0,0,0.5,0,0,9999,9999,9,999999999,0,0.0,0,0,0.0,0.0
2026,7,21,10,22,?9?9?9?9E0?9?9?9*9*9?9?9?9?9?9?9*9?9*9*9?9*9,30.66,23.49,64.2,0,0,0,0,0,0.5,0,0,9999,9999,9,999999999,0,0.0,0,0,0.0,0.0
2026,7,21,10,23,?9?9?9?9E0?9?9?9*9*9?9?9?9?9?9?9*9?9*9*9?9*9,30.66,23.49,64.2,0,0,0,0,0,0.5,0,0,9999,9999,9,999999999,0,0.0,0,0,0.0,0.0
2026,7,21,10,24,?9?9?9?9E0?9?9?9*9*9?9?9?9?9?9?9*9?9*9*9?9*9,30.66,23.49,64.2,0,0,0,0,0,0.5,0,0,9999,9999,9,999999999,0,0.0,0,0,0.0,0.0
2026,7,21,10,25,?9?9?9?9E0?9?9?9*9*9?9?9?9?9?9?9*9?9*9*9?9*9,30.66,23.49,64.2,0,0,0,0,0,0.5,0,0,9999,9999,9,999999999,0,0.0,0,0,0.0,0.0
2026,7,21,10,26,?9?9?9?9E0?9?9?9*9*9?9?9?9?9?9?9*9?9*9*9?9*9,30.66,23.49,64.2,0,0,0,0,0,0.5,0,0,9999,9999,9,999999999,0,0.0,0,0,0.0,0.0
2026,7,21,10,27,?9?9?9?9E0?9?9?9*9*9?9?9?9?9?9?9*9?9*9*9?9*9,30.66,23.49,64.2,0,0,0,0,0,0.5,0,0,9999,9999,9,999999999,0,0.0,0,0,0.0,0.0
2026,7,21,10,28,?9?9?9?9E0?9?9?9*9*9?9?9?9?9?9?9*9?9*9*9?9*9,30.66,23.49,64.2,0,0,0,0,0,0.5,0,0,9999,9999,9,999999999,0,0.0,0,0,0.0,0.0
2026,7,21,10,29,?9?9?9?9E0?9?9?9*9*9?9?9?9?9?9?9*9?9*9*9?9*9,30.66,23.49,64.2,0,0,0,0,0,0.5,0,0,9999,9999,9,999999999,0,0.0,0,0,0.0,0.0
2026,7,21,10,30,?9?9?9?9E0?9?9?9*9*9?9?9?9?9?9?9*9?9*9*9?9*9,30.66,23.49,64.2,0,0,0,0,0,0.5,0,0,9999,9999,9,999999999,0,0.0,0,0,0.0,0.0
2026,7,21,10,31,?9?9?9?9E0?9?9?9*9*9?9?9?9?9?9?9*9?9*9*9?9*9,30.66,23.49,64.2,0,0,0,0,0,0.5,0,0,9999,9999,9,999999999,0,0.0,0,0,0.0,0.0
2026,7,21,10,32,?9?9?9?9E0?9?9?9*9*9?9?9?9?9?9?9*9?9*9*9?9*9,30.66,23.49,64.2,0,0,0,0,0,0.5,0,0,9999,9999,9,999999999,0,0.0,0,0,0.0,0.0
2026,7,21,10,33,?9?9?9?9E0?9?9?9*9*9?9?9?9?9?9?9*9?9*9*9?9*9,30.66,23.49,64.2,0,0,0,0,0,0.5,0,0,9999,9999,9,999999999,0,0.0,0,0,0.0,0.0
2026,7,21,10,34,?9?9?9?9E0?9?9?9*9*9?9?9?9?9?9?9*9?9*9*9?9*9,30.66,23.49,64.2,0,0,0,0,0,0.5,0,0,9999,9999,9,999999999,0,0.0,0,0,0.0,0.0
2026,7,21,10,35,?9?9?9?9E0?9?9?9*9*9?9?9?9?9?9?9*9?9*9*9?9*9,30.66,23.49,64.2,0,0,0,0,0,0.5,0,0,9999,9999,9,999999999,0,0.0,0,0,0.0,0.0
2026,7,21,10,36,?9?9?9?9E0?9?9?9*9*9?9?9?9?9?9?9*9?9*9*9?9*9,30.66,23.49,64.2,0,0,0,0,0,0.5,0,0,9999,9999,9,999999999,0,0.0,0,0,0.0,0.0
2026,7,21,10,37,?9?9?9?9E0?9?9?9*9*9?9?9?9?9?9?9*9?9*9*9?9*9,30.66,23.49,64.2,0,0,0,0,0,0.5,0,0,9999,9999,9,999999999,0,0.0,0,0,0.0,0.0
2026,7,21,10,38,?9?9?9?9E0?9?9?9*9*9?9?9?9?9?9?9*9?9*9*9?9*9,30.66,23.49,64.2,0,0,0,0,0,0.5,0,0,9999,9999,9,999999999,0,0.0,0,0,0.0,0.0
2026,7,21,10,39,?9?9?9?9E0?9?9?9*9*9?9?9?9?9?9?9*9?9*9*9?9*9,30.66,23.49,64.2,0,0,0,0,0,0.5,0,0,9999,9999,9,999999999,0,0.0,0,0,0.0,0.0
2026,7,21,10,40,?9?9?9?9E0?9?9?9*9*9?9?9?9?9?9?9*9?9*9*9?9*9,30.66,23.49,64.2,0,0,0,0,0,0.5,0,0,9999,9999,9,999999999,0,0.0,0,0,0.0,0.0
2026,7,21,10,41,?9?9?9?9E0?9?9?9*9*9?9?9?9?9?9?9*9?9*9*9?9*9,30.66,23.49,64.2,0,0,0,0,0,0.5,0,0,9999,9999,9,999999999,0,0.0,0,0,0.0,0.0
2026,7,21,10,42,?9?9?9?9E0?9?9?9*9*9?9?9?9?9?9?9*9?9*9*9?9*9,30.66,23.49,64.2,0,0,0,0,0,0.5,0,0,9999,9999,9,999999999,0,0.0,0,0,0.0,0.0
2026,7,21,10,43,?9?9?9?9E0?9?9?9*9*9?9?9?9?9?9?9*9?9*9*9?9*9,30.66,23.49,64.2,0,0,0,0,0,0.5,0,0,9999,9999,9,999999999,0,0.0,0,0,0.0,0.0
2026,7,21,10,44,?9?9?9?9E0?9?9?9*9*9?9?9?9?9?9?9*9?9*9*9?9*9,30.66,23.49,64.2,0,0,0,0,0,0.5,0,0,9999,9999,9,999999999,0,0.0,0,0,0.0,0.0
2026,7,21,10,45,?9?9?9?9E0?9?9?9*9*9?9?9?9?9?9?9*9?9*9*9?9*9,30.66,23.49,64.2,0,0,0,0,0,0.5,0,0,9999,9999,9,999999999,0,0.0,0,0,0.0,0.0
2026,7,21,10,46,?9?9?9?9E0?9?9?9*9*9?9?9?9?9?9?9*9?9*9*9?9*9,30.66,23.49,64.2,0,0,0,0,0,0.5,0,0,9999,9999,9,999999999,0,0.0,0,0,0.0,0.0
2026,7,21,10,47,?9?9?9?9E0?9?9?9*9*9?9?9?9?9?9?9*9?9*9*9?9*9,30.66,23.49,64.2,0,0,0,0,0,0.5,0,0,9999,9999,9,999999999,0,0.0,0,0,0.0,0.0
2026,7,21,10,48,?9?9?9?9E0?9?9?9*9*9?9?9?9?9?9?9*9?9*9*9?9*9,30.66,23.49,64.2,0,0,0,0,0,0.5,0,0,9999,9999,9,999999999,0,0.0,0,0,0.0,0.0
2026,7,21,10,49,?9?9?9?9E0?9?9?9*9*9?9?9?9?9?9?9*9?9*9*9?9*9,30.66,23.49,64.2,0,0,0,0,0,0.5,0,0,9999,9999,9,999999999,0,0.0,0,0,0.0,0.0
2026,7,21,10,50,?9?9?9?9E0?9?9?9*9*9?9?9?9?9?9?9*9?9*9*9?9*9,30.66,23.49,64.2,0,0,0,0,0,0.5,0,0,9999,9999,9,999999999,0,0.0,0,0,0.0,0.0
2026,7,21,10,51,?9?9?9?9E0?9?9?9*9*9?9?9?9?9?9?9*9?9*9*9?9*9,30.66,23.49,64.2,0,0,0,0,0,0.5,0,0,9999,9999,9,999999999,0,0.0,0,0,0.0,0.0
2026,7,21,10,52,?9?9?9?9E0?9?9?9*9*9?9?9?9?9?9?9*9?9*9*9?9*9,30.66,23.49,64.2,0,0,0,0,0,0.5,0,0,9999,9999,9,999999999,0,0.0,0,0,0.0,0.0
2026,7,21,10,53,?9?9?9?9E0?9?9?9*9*9?9?9?9?9?9?9*9?9*9*9?9*9,30.66,23.49,64.2,0,0,0,0,0,0.5,0,0,9999,9999,9,999999999,0,0.0,0,0,0.0,0.0
2026,7,21,10,54,?9?9?9?9E0?9?9?9*9*9?9?9?9?9?9?9*9?9*9*9?9*9,30.66,23.49,64.2,0,0,0,0,0,0.5,0,0,9999,9999,9,999999999,0,0.0,0,0,0.0,0.0
2026,7,21,10,55,?9?9?9?9E0?9?9?9*9*9?9?9?9?9?9?9*9?9*9*9?9*9,30.66,23.49,64.2,0,0,0,0,0,0.5,0,0,9999,9999,9,999999999,0,0.0,0,0,0.0,0.0
2026,7,21,10,56,?9?9?9?9E0?9?9?9*9*9?9?9?9?9?9?9*9?9*9*9?9*9,30.66,23.49,64.2,0,0,0,0,0,0.5,0,0,9999,9999,9,999999999,0,0.0,0,0,0.0,0.0
2026,7,21,10,57,?9?9?9?9E0?9?9?9*9*9?9?9?9?9?9?9*9?9*9*9?9*9,30.66,23.49,64.2,0,0,0,0,0,0.5,0,0,9999,9999,9,999999999,0,0.0,0,0,0.0,0.0
2026,7,21,10,58,?9?9?9?9E0?9?9?9*9*9?9?9?9?9?9?9*9?9*9*9?9*9,30.66,23.49,64.2,0,0,0,0,0,0.5,0,0,9999,9999,9,999999999,0,0.0,0,0,0.0,0.0
2026,7,21,10,59,?9?9?9?9E0?9?9?9*9*9?9?9?9?9?9?9*9?9*9*9?9*9,30.66,23.49,64.2,0,0,0,0,0,0.5,0,0,9999,9999,9,999999999,0,0.0,0,0,0.0,0.0
2026,7,21,10,60,?9?9?9?9E0?9?9?9*9*9?9?9?9?9?9?9*9?9*9*9?9*9,30.66,23.49,64.2,0,0,0,0,0,0.5,0,0,9999,9999,9,999999999,0,0.0,0,0,0.0,0.0
2026,7,21,11,1,?9?9?9?9E0?9?9?9*9*9?9?9?9?9?9?9*9?9*9*9?9*9,30.66,23.49,64.2,0,0,0,0,0,0.5,0,0,9999,9999,9,999999999,0,0.0,0,0,0.0,0.0
2026,7,21,11,2,?9?9?9?9E0?9?9?9*9*9?9?9?9?9?9?9*9?9*9*9?9*9,30.66,23.49,64.2,0,0,0,0,0,0.5,0,0,9999,9999,9,999999999,0,0.0,0,0,0.0,0.0
2026,7,21,11,3,?9?9?9?9E0?9?9?9*9*9?9?9?9?9?9?9*9?9*9*9?9*9,30.66,23.49,64.2,0,0,0,0,0,0.5,0,0,9999,9999,9,999999999,0,0.0,0,0,0.0,0.0
2026,7,21,11,4,?9?9?9?9E0?9?9?9*9*9?9?9?9?9?9?9*9?9*9*9?9*9,30.66,23.49,64.2,0,0,0,0,0,0.5,0,0,9999,9999,9,999999999,0,0.0,0,0,0.0,0.0
2026,7,21,11,5,?9?9?9?9E0?9?9?9*9*9?9?9?9?9?9?9*9?9*9*9?9*9,30.66,23.49,64.2,0,0,0,0,0,0.5,0,0,9999,9999,9,999999999,0,0.0,0,0,0.0,0.0
2026,7,21,11,6,?9?9?9?9E0?9?9?9*9*9?9?9?9?9?9?9*9?9*9*9?9*9,30.66,23.49,64.2,0,0,0,0,0,0.5,0,0,9999,9999,9,999999999,0,0.0,0,0,0.0,0.0
2026,7,21,11,7,?9?9?9?9E0?9?9?9*9*9?9?9?9?9?9?9*9?9*9*9?9*9,30.66,23.49,64.2,0,0,0,0,0,0.5,0,0,9999,9999,9,999999999,0,0.0,0,0,0.0,0.0
2026,7,21,11,8,?9?9?9?9E0?9?9?9*9*9?9?9?9?9?9?9*9?9*9*9?9*9,30.66,23.49,64.2,0,0,0,0,0,0.5,0,0,9999,9999,9,999999999,0,0.0,0,0,0.0,0.0
2026,7,21,11,9,?9?9?9?9E0?9?9?9*9*9?9?9?9?9?9?9*9?9*9*9?9*9,30.66,23.49,64.2,0,0,0,0,0,0.5,0,0,9999,9999,9,999999999,0,0.0,0,0,0.0,0.0
2026,7,21,11,10,?9?9?9?9E0?9?9?9*9*9?9?9?9?9?9?9*9?9*9*9?9*9,30.66,23.49,64.2,0,0,0,0,0,0.5,0,0,9999,9999,9,999999999,0,0.0,0,0,0.0,0.0
2026,7,21,11,11,?9?9?9?9E0?9?9?9*9*9?9?9?9?9?9?9*9?9*9*9?9*9,30.66,23.49,64.2,0,0,0,0,0,0.5,0,0,9999,9999,9,999999999,0,0.0,0,0,0.0,0.0
2026,7,21,11,12,?9?9?9?9E0?9?9?9*9*9?9?9?9?9?9?9*9?9*9*9?9*9,30.66,23.49,64.2,0,0,0,0,0,0.5,0,0,9999,9999,9,999999999,0,0.0,0,0,0.0,0.0
2026,7,21,11,13,?9?9?9?9E0?9?9?9*9*9?9?9?9?9?9?9*9?9*9*9?9*9,30.66,23.49,64.2,0,0,0,0,0,0.5,0,0,9999,9999,9,999999999,0,0.0,0,0,0.0,0.0
2026,7,21,11,14,?9?9?9?9E0?9?9?9*9*9?9?9?9?9?9?9*9?9*9*9?9*9,30.66,23.49,64.2,0,0,0,0,0,0.5,0,0,9999,9999,9,999999999,0,0.0,0,0,0.0,0.0
2026,7,21,11,15,?9?9?9?9E0?9?9?9*9*9?9?9?9?9?9?9*9?9*9*9?9*9,30.66,23.49,64.2,0,0,0,0,0,0.5,0,0,9999,9999,9,999999999,0,0.0,0,0,0.0,0.0
2026,7,21,11,16,?9?9?9?9E0?9?9?9*9*9?9?9?9?9?9?9*9?9*9*9?9*9,30.66,23.49,64.2,0,0,0,0,0,0.5,0,0,9999,9999,9,999999999,0,0.0,0,0,0.0,0.0
2026,7,21,11,17,?9?9?9?9E0?9?9?9*9*9?9?9?9?9?9?9*9?9*9*9?9*9,30.66,23.49,64.2,0,0,0,0,0,0.5,0,0,9999,9999,9,999999999,0,0.0,0,0,0.0,0.0
2026,7,21,11,18,?9?9?9?9E0?9?9?9*9*9?9?9?9?9?9?9*9?9*9*9?9*9,30.66,23.49,64.2,0,0,0,0,0,0.5,0,0,9999,9999,9,999999999,0,0.0,0,0,0.0,0.0
2026,7,21,11,19,?9?9?9?9E0?9?9?9*9*9?9?9?9?9?9?9*9?9*9*9?9*9,30.66,23.49,64.2,0,0,0,0,0,0.5,0,0,9999,9999,9,999999999,0,0.0,0,0,0.0,0.0
2026,7,21,11,20,?9?9?9?9E0?9?9?9*9*9?9?9?9?9?9?9*9?9*9*9?9*9,30.66,23.49,64.2,0,0,0,0,0,0.5,0,0,9999,9999,9,999999999,0,0.0,0,0,0.0,0.0
2026,7,21,11,21,?9?9?9?9E0?9?9?9*9*9?9?9?9?9?9?9*9?9*9*9?9*9,30.66,23.49,64.2,0,0,0,0,0,0.5,0,0,9999,9999,9,999999999,0,0.0,0,0,0.0,0.0
2026,7,21,11,22,?9?9?9?9E0?9?9?9*9*9?9?9?9?9?9?9*9?9*9*9?9*9,30.66,23.49,64.2,0,0,0,0,0,0.5,0,0,9999,9999,9,999999999,0,0.0,0,0,0.0,0.0
2026,7,21,11,23,?9?9?9?9E0?9?9?9*9*9?9?9?9?9?9?9*9?9*9*9?9*9,30.66,23.49,64.2,0,0,0,0,0,0.5,0,0,9999,9999,9,999999999,0,0.0,0,0,0.0,0.0
2026,7,21,11,24,?9?9?9?9E0?9?9?9*9*9?9?9?9?9?9?9*9?9*9*9?9*9,30.66,23.49,64.2,0,0,0,0,0,0.5,0,0,9999,9999,9,999999999,0,0.0,0,0,0.0,0.0
2026,7,21,11,25,?9?9?9?9E0?9?9?9*9*9?9?9?9?9?9?9*9?9*9*9?9*9,30.66,23.49,64.2,0,0,0,0,0,0.5,0,0,9999,9999,9,999999999,0,0.0,0,0,0.0,0.0
2026,7,21,11,26,?9?9?9?9E0?9?9?9*9*9?9?9?9?9?9?9*9?9*9*9?9*9,30.66,23.49,64.2,0,0,0,0,0,0.5,0,0,9999,9999,9,999999999,0,0.0,0,0,0.0,0.0
2026,7,21,11,27,?9?9?9?9E0?9?9?9*9*9?9?9?9?9?9?9*9?9*9*9?9*9,30.66,23.49,64.2,0,0,0,0,0,0.5,0,0,9999,9999,9,999999999,0,0.0,0,0,0.0,0.0
2026,7,21,11,28,?9?9?9?9E0?9?9?9*9*9?9?9?9?9?9?9*9?9*9*9?9*9,30.66,23.49,64.2,0,0,0,0,0,0.5,0,0,9999,9999,9,999999999,0,0.0,0,0,0.0,0.0
2026,7,21,11,29,?9?9?9?9E0?9?9?9*9*9?9?9?9?9?9?9*9?9*9*9?9*9,30.66,23.49,64.2,0,0,0,0,0,0.5,0,0,9999,9999,9,999999999,0,0.0,0,0,0.0,0.0
2026,7,21,11,30,?9?9?9?9E0?9?9?9*9*9?9?9?9?9?9?9*9?9*9*9?9*9,30.66,23.49,64.2,0,0,0,0,0,0.5,0,0,9999,9999,9,999999999,0,0.0,0,0,0.0,0.0
2026,7,21,11,31,?9?9?9?9E0?9?9?9*9*9?9?9?9?9?9?9*9?9*9*9?9*9,30.66,23.49,64.2,0,0,0,0,0,0.5,0,0,9999,9999,9,999999999,0,0.0,0,0,0.0,0.0
2026,7,21,11,32,?9?9?9?9E0?9?9?9*9*9?9?9?9?9?9?9*9?9*9*9?9*9,30.66,23.49,64.2,0,0,0,0,0,0.5,0,0,9999,9999,9,999999999,0,0.0,0,0,0.0,0.0
2026,7,21,11,33,?9?9?9?9E0?9?9?9*9*9?9?9?9?9?9?9*9?9*9*9?9*9,30.66,23.49,64.2,0,0,0,0,0,0.5,0,0,9999,9999,9,999999999,0,0.0,0,0,0.0,0.0
2026,7,21,11,34,?9?9?9?9E0?9?9?9*9*9?9?9?9?9?9?9*9?9*9*9?9*9,30.66,23.49,64.2,0,0,0,0,0,0.5,0,0,9999,9999,9,999999999,0,0.0,0,0,0.0,0.0
2026,7,21,11,35,?9?9?9?9E0?9?9?9*9*9?9?9?9?9?9?9*9?9*9*9?9*9,30.66,23.49,64.2,0,0,0,0,0,0.5,0,0,9999,9999,9,999999999,0,0.0,0,0,0.0,0.0
2026,7,21,11,36,?9?9?9?9E0?9?9?9*9*9?9?9?9?9?9?9*9?9*9*9?9*9,30.66,23.49,64.2,0,0,0,0,0,0.5,0,0,9999,9999,9,999999999,0,0.0,0,0,0.0,0.0
2026,7,21,11,37,?9?9?9?9E0?9?9?9*9*9?9?9?9?9?9?9*9?9*9*9?9*9,30.66,23.49,64.2,0,0,0,0,0,0.5,0,0,9999,9999,9,999999999,0,0.0,0,0,0.0,0.0
2026,7,21,11,38,?9?9?9?9E0?9?9?9*9*9?9?9?9?9?9?9*9?9*9*9?9*9,30.66,23.49,64.2,0,0,0,0,0,0.5,0,0,9999,9999,9,999999999,0,0.0,0,0,0.0,0.0
2026,7,21,11,39,?9?9?9?9E0?9?9?9*9*9?9?9?9?9?9?9*9?9*9*9?9*9,30.66,23.49,64.2,0,0,0,0,0,0.5,0,0,9999,9999,9,999999999,0,0.0,0,0,0.0,0.0
2026,7,21,11,40,?9?9?9?9E0?9?9?9*9*9?9?9?9?9?9?9*9?9*9*9?9*9,30.66,23.49,64.2,0,0,0,0,0,0.5,0,0,9999,9999,9,999999999,0,0.0,0,0,0.0,0.0
2026,7,21,11,41,?9?9?9?9E0?9?9?9*9*9?9?9?9?9?9?9*9?9*9*9?9*9,30.66,23.49,64.2,0,0,0,0,0,0.5,0,0,9999,9999,9,999999999,0,0.0,0,0,0.0,0.0
2026,7,21,11,42,?9?9?9?9E0?9?9?9*9*9?9?9?9?9?9?9*9?9*9*9?9*9,30.66,23.49,64.2,0,0,0,0,0,0.5,0,0,9999,9999,9,999999999,0,0.0,0,0,0.0,0.0
2026,7,21,11,43,?9?9?9?9E0?9?9?9*9*9?9?9?9?9?9?9*9?9*9*9?9*9,30.66,23.49,64.2,0,0,0,0,0,0.5,0,0,9999,9999,9,999999999,0,0.0,0,0,0.0,0.0
2026,7,21,11,44,?9?9?9?9E0?9?9?9*9*9?9?9?9?9?9?9*9?9*9*9?9*9,30.66,23.49,64.2,0,0,0,0,0,0.5,0,0,9999,9999,9,999999999,0,0.0,0,0,0.0,0.0
2026,7,21,11,45,?9?9?9?9E0?9?9?9*9*9?9?9?9?9?9?9*9?9*9*9?9*9,30.66,23.49,64.2,0,0,0,0,0,0.5,0,0,9999,9999,9,999999999,0,0.0,0,0,0.0,0.0
2026,7,21,11,46,?9?9?9?9E0?9?9?9*9*9?9?9?9?9?9?9*9?9*9*9?9*9,30.66,23.49,64.2,0,0,0,0,0,0.5,0,0,9999,9999,9,999999999,0,0.0,0,0,0.0,0.0
2026,7,21,11,47,?9?9?9?9E0?9?9?9*9*9?9?9?9?9?9?9*9?9*9*9?9*9,30.66,23.49,64.2,0,0,0,0,0,0.5,0,0,9999,9999,9,999999999,0,0.0,0,0,0.0,0.0
2026,7,21,11,48,?9?9?9?9E0?9?9?9*9*9?9?9?9?9?9?9*9?9*9*9?9*9,30.66,23.49,64.2,0,0,0,0,0,0.5,0,0,9999,9999,9,999999999,0,0.0,0,0,0.0,0.0
2026,7,21,11,49,?9?9?9?9E0?9?9?9*9*9?9?9?9?9?9?9*9?9*9*9?9*9,30.66,23.49,64.2,0,0,0,0,0,0.5,0,0,9999,9999,9,999999999,0,0.0,0,0,0.0,0.0
2026,7,21,11,50,?9?9?9?9E0?9?9?9*9*9?9?9?9?9?9?9*9?9*9*9?9*9,30.66,23.49,64.2,0,0,0,0,0,0.5,0,0,9999,9999,9,999999999,0,0.0,0,0,0.0,0.0
2026,7,21,11,51,?9?9?9?9E0?9?9?9*9*9?9?9?9?9?9?9*9?9*9*9?9*9,30.66,23.49,64.2,0,0,0,0,0,0.5,0,0,9999,9999,9,999999999,0,0.0,0,0,0.0,0.0
2026,7,21,11,52,?9?9?9?9E0?9?9?9*9*9?9?9?9?9?9?9*9?9*9*9?9*9,30.66,23.49,64.2,0,0,0,0,0,0.5,0,0,9999,9999,9,999999999,0,0.0,0,0,0.0,0.0
2026,7,21,11,53,?9?9?9?9E0?9?9?9*9*9?9?9?9?9?9?9*9?9*9*9?9*9,30.66,23.49,64.2,0,0,0,0,0,0.5,0,0,9999,9999,9,999999999,0,0.0,0,0,0.0,0.0
2026,7,21,11,54,?9?9?9?9E0?9?9?9*9*9?9?9?9?9?9?9*9?9*9*9?9*9,30.66,23.49,64.2,0,0,0,0,0,0.5,0,0,9999,9999,9,999999999,0,0.0,0,0,0.0,0.0
2026,7,21,11,55,?9?9?9?9E0?9?9?9*9*9?9?9?9?9?9?9*9?9*9*9?9*9,30.66,23.49,64.2,0,0,0,0,0,0.5,0,0,9999,9999,9,999999999,0,0.0,0,0,0.0,0.0
2026,7,21,11,56,?9?9?9?9E0?9?9?9*9*9?9?9?9?9?9?9*9?9*9*9?9*9,30.66,23.49,64.2,0,0,0,0,0,0.5,0,0,9999,9999,9,999999999,0,0.0,0,0,0.0,0.0
2026,7,21,11,57,?9?9?9?9E0?9?9?9*9*9?9?9?9?9?9?9*9?9*9*9?9*9,30.66,23.49,64.2,0,0,0,0,0,0.5,0,0,9999,9999,9,999999999,0,0.0,0,0,0.0,0.0
2026,7,21,11,58,?9?9?9?9E0?9?9?9*9*9?9?9?9?9?9?9*9?9*9*9?9*9,30.66,23.49,64.2,0,0,0,0,0,0.5,0,0,9999,9999,9,999999999,0,0.0,0,0,0.0,0.0
2026,7,21,11,59,?9?9?9?9E0?9?9?9*9*9?9?9?9?9?9?9*9?9*9*9?9*9,30.66,23.49,64.2,0,0,0,0,0,0.5,0,0,9999,9999,9,999999999,0,0.0,0,0,0.0,0.0
2026,7,21,11,60,?9?9?9?9E0?9?9?9*9*9?9?9?9?9?9?9*9?9*9*9?9*9,30.66,23.49,64.2,0,0,0,0,0,0.5,0,0,9999,9999,9,999999999,0,0.0,0,0,0.0,0.0
2026,7,21,12,1,?9?9?9?9E0?9?9?9*9*9?9?9?9?9?9?9*9?9*9*9?9*9,30.66,23.49,64.2,0,0,0,0,0,0.5,0,0,9999,9999,9,999999999,0,0.0,0,0,0.0,0.0
2026,7,21,12,2,?9?9?9?9E0?9?9?9*9*9?9?9?9?9?9?9*9?9*9*9?9*9,30.66,23.49,64.2,0,0,0,0,0,0.5,0,0,9999,9999,9,999999999,0,0.0,0,0,0.0,0.0
2026,7,21,12,3,?9?9?9?9E0?9?9?9*9*9?9?9?9?9?9?9*9?9*9*9?9*9,30.66,23.49,64.2,0,0,0,0,0,0.5,0,0,9999,9999,9,999999999,0,0.0,0,0,0.0,0.0
2026,7,21,12,4,?9?9?9?9E0?9?9?9*9*9?9?9?9?9?9?9*9?9*9*9?9*9,30.66,23.49,64.2,0,0,0,0,0,0.5,0,0,9999,9999,9,999999999,0,0.0,0,0,0.0,0.0
2026,7,21,12,5,?9?9?9?9E0?9?9?9*9*9?9?9?9?9?9?9*9?9*9*9?9*9,30.66,23.49,64.2,0,0,0,0,0,0.5,0,0,9999,9999,9,999999999,0,0.0,0,0,0.0,0.0
2026,7,21,12,6,?9?9?9?9E0?9?9?9*9*9?9?9?9?9?9?9*9?9*9*9?9*9,30.66,23.49,64.2,0,0,0,0,0,0.5,0,0,9999,9999,9,999999999,0,0.0,0,0,0.0,0.0
2026,7,21,12,7,?9?9?9?9E0?9?9?9*9*9?9?9?9?9?9?9*9?9*9*9?9*9,30.66,23.49,64.2,0,0,0,0,0,0.5,0,0,9999,9999,9,999999999,0,0.0,0,0,0.0,0.0
2026,7,21,12,8,?9?9?9?9E0?9?9?9*9*9?9?9?9?9?9?9*9?9*9*9?9*9,30.66,23.49,64.2,0,0,0,0,0,0.5,0,0,9999,9999,9,999999999,0,0.0,0,0,0.0,0.0
2026,7,21,12,9,?9?9?9?9E0?9?9?9*9*9?9?9?9?9?9?9*9?9*9*9?9*9,30.66,23.49,64.2,0,0,0,0,0,0.5,0,0,9999,9999,9,999999999,0,0.0,0,0,0.0,0.0
2026,7,21,12,10,?9?9?9?9E0?9?9?9*9*9?9?9?9?9?9?9*9?9*9*9?9*9,30.66,23.49,64.2,0,0,0,0,0,0.5,0,0,9999,9999,9,999999999,0,0.0,0,0,0.0,0.0
2026,7,21,12,11,?9?9?9?9E0?9?9?9*9*9?9?9?9?9?9?9*9?9*9*9?9*9,30.66,23.49,64.2,0,0,0,0,0,0.5,0,0,9999,9999,9,999999999,0,0.0,0,0,0.0,0.0
2026,7,21,12,12,?9?9?9?9E0?9?9?9*9*9?9?9?9?9?9?9*9?9*9*9?9*9,30.66,23.49,64.2,0,0,0,0,0,0.5,0,0,9999,9999,9,999999999,0,0.0,0,0,0.0,0.0
2026,7,21,12,13,?9?9?9?9E0?9?9?9*9*9?9?9?9?9?9?9*9?9*9*9?9*9,30.66,23.49,64.2,0,0,0,0,0,0.5,0,0,9999,9999,9,999999999,0,0.0,0,0,0.0,0.0
2026,7,21,12,14,?9?9?9?9E0?9?9?9*9*9?9?9?9?9?9?9*9?9*9*9?9*9,30.66,23.49,64.2,0,0,0,0,0,0.5,0,0,9999,9999,9,999999999,0,0.0,0,0,0.0,0.0
2026,7,21,12,15,?9?9?9?9E0?9?9?9*9*9?9?9?9?9?9?9*9?9*9*9?9*9,30.66,23.49,64.2,0,0,0,0,0,0.5,0,0,9999,9999,9,999999999,0,0.0,0,0,0.0,0.0
2026,7,21,12,16,?9?9?9?9E0?9?9?9*9*9?9?9?9?9?9?9*9?9*9*9?9*9,30.66,23.49,64.2,0,0,0,0,0,0.5,0,0,9999,9999,9,999999999,0,0.0,0,0,0.0,0.0
2026,7,21,12,17,?9?9?9?9E0?9?9?9*9*9?9?9?9?9?9?9*9?9*9*9?9*9,30.66,23.49,64.2,0,0,0,0,0,0.5,0,0,9999,9999,9,999999999,0,0.0,0,0,0.0,0.0
2026,7,21,12,18,?9?9?9?9E0?9?9?9*9*9?9?9?9?9?9?9*9?9*9*9?9*9,30.66,23.49,64.2,0,0,0,0,0,0.5,0,0,9999,9999,9,999999999,0,0.0,0,0,0.0,0.0
2026,7,21,12,19,?9?9?9?9E0?9?9?9*9*9?9?9?9?9?9?9*9?9*9*9?9*9,30.66,23.49,64.2,0,0,0,0,0,0.5,0,0,9999,9999,9,999999999,0,0.0,0,0,0.0,0.0
2026,7,21,12,20,?9?9?9?9E0?9?9?9*9*9?9?9?9?9?9?9*9?9*9*9?9*9,30.66,23.49,64.2,0,0,0,0,0,0.5,0,0,9999,9999,9,999999999,0,0.0,0,0,0.0,0.0
2026,7,21,12,21,?9?9?9?9E0?9?9?9*9*9?9?9?9?9?9?9*9?9*9*9?9*9,30.66,23.49,64.2,0,0,0,0,0,0.5,0,0,9999,9999,9,999999999,0,0.0,0,0,0.0,0.0
2026,7,21,12,22,?9?9?9?9E0?9?9?9*9*9?9?9?9?9?9?9*9?9*9*9?9*9,30.66,23.49,64.2,0,0,0,0,0,0.5,0,0,9999,9999,9,999999999,0,0.0,0,0,0.0,0.0
2026,7,21,12,23,?9?9?9?9E0?9?9?9*9*9?9?9?9?9?9?9*9?9*9*9?9*9,30.66,23.49,64.2,0,0,0,0,0,0.5,0,0,9999,9999,9,999999999,0,0.0,0,0,0.0,0.0
2026,7,21,12,24,?9?9?9?9E0?9?9?9*9*9?9?9?9?9?9?9*9?9*9*9?9*9,30.66,23.49,64.2,0,0,0,0,0,0.5,0,0,9999,9999,9,999999999,0,0.0,0,0,0.0,0.0
2026,7,21,12,25,?9?9?9?9E0?9?9?9*9*9?9?9?9?9?9?9*9?9*9*9?9*9,30.66,23.49,64.2,0,0,0,0,0,0.5,0,0,9999,9999,9,999999999,0,0.0,0,0,0.0,0.0
2026,7,21,12,26,?9?9?9?9E0?9?9?9*9*9?9?9?9?9?9?9*9?9*9*9?9*9,30.66,23.49,64.2,0,0,0,0,0,0.5,0,0,9999,9999,9,999999999,0,0.0,0,0,0.0,0.0
2026,7,21,12,27,?9?9?9?9E0?9?9?9*9*9?9?9?9?9?9?9*9?9*9*9?9*9,30.66,23.49,64.2,0,0,0,0,0,0.5,0,0,9999,9999,9,999999999,0,0.0,0,0,0.0,0.0
2026,7,21,12,28,?9?9?9?9E0?9?9?9*9*9?9?9?9?9?9?9*9?9*9*9?9*9,30.66,23.49,64.2,0,0,0,0,0,0.5,0,0,9999,9999,9,999999999,0,0.0,0,0,0.0,0.0
2026,7,21,12,29,?9?9?9?9E0?9?9?9*9*9?9?9?9?9?9?9*9?9*9*9?9*9,30.66,23.49,64.2,0,0,0,0,0,0.5,0,0,9999,9999,9,999999999,0,0.0,0,0,0.0,0.0
2026,7,21,12,30,?9?9?9?9E0?9?9?9*9*9?9?9?9?9?9?9*9?9*9*9?9*9,30.66,23.49,64.2,0,0,0,0,0,0.5,0,0,9999,9999,9,999999999,0,0.0,0,0,0.0,0.0
2026,7,21,12,31,?9?9?9?9E0?9?9?9*9*9?9?9?9?9?9?9*9?9*9*9?9*9,30.66,23.49,64.2,0,0,0,0,0,0.5,0,0,9999,9999,9,999999999,0,0.0,0,0,0.0,0.0
2026,7,21,12,32,?9?9?9?9E0?9?9?9*9*9?9?9?9?9?9?9*9?9*9*9?9*9,30.66,23.49,64.2,0,0,0,0,0,0.5,0,0,9999,9999,9,999999999,0,0.0,0,0,0.0,0.0
2026,7,21,12,33,?9?9?9?9E0?9?9?9*9*9?9?9?9?9?9?9*9?9*9*9?9*9,30.66,23.49,64.2,0,0,0,0,0,0.5,0,0,9999,9999,9,999999999,0,0.0,0,0,0.0,0.0
2026,7,21,12,34,?9?9?9?9E0?9?9?9*9*9?9?9?9?9?9?9*9?9*9*9?9*9,30.66,23.49,64.2,0,0,0,0,0,0.5,0,0,9999,9999,9,999999999,0,0.0,0,0,0.0,0.0
2026,7,21,12,35,?9?9?9?9E0?9?9?9*9*9?9?9?9?9?9?9*9?9*9*9?9*9,30.66,23.49,64.2,0,0,0,0,0,0.5,0,0,9999,9999,9,999999999,0,0.0,0,0,0.0,0.0
2026,7,21,12,36,?9?9?9?9E0?9?9?9*9*9?9?9?9?9?9?9*9?9*9*9?9*9,30.66,23.49,64.2,0,0,0,0,0,0.5,0,0,9999,9999,9,999999999,0,0.0,0,0,0.0,0.0
2026,7,21,12,37,?9?9?9?9E0?9?9?9*9*9?9?9?9?9?9?9*9?9*9*9?9*9,30.66,23.49,64.2,0,0,0,0,0,0.5,0,0,9999,9999,9,999999999,0,0.0,0,0,0.0,0.0
2026,7,21,12,38,?9?9?9?9E0?9?9?9*9*9?9?9?9?9?9?9*9?9*9*9?9*9,30.66,23.49,64.2,0,0,0,0,0,0.5,0,0,9999,9999,9,999999999,0,0.0,0,0,0.0,0.0
2026,7,21,12,39,?9?9?9?9E0?9?9?9*9*9?9?9?9?9?9?9*9?9*9*9?9*9,30.66,23.49,64.2,0,0,0,0,0,0.5,0,0,9999,9999,9,999999999,0,0.0,0,0,0.0,0.0
2026,7,21,12,40,?9?9?9?9E0?9?9?9*9*9?9?9?9?9?9?9*9?9*9*9?9*9,30.66,23.49,64.2,0,0,0,0,0,0.5,0,0,9999,9999,9,999999999,0,0.0,0,0,0.0,0.0
2026,7,21,12,41,?9?9?9?9E0?9?9?9*9*9?9?9?9?9?9?9*9?9*9*9?9*9,30.66,23.49,64.2,0,0,0,0,0,0.5,0,0,9999,9999,9,999999999,0,0.0,0,0,0.0,0.0
2026,7,21,12,42,?9?9?9?9E0?9?9?9*9*9?9?9?9?9?9?9*9?9*9*9?9*9,30.66,23.49,64.2,0,0,0,0,0,0.5,0,0,9999,9999,9,999999999,0,0.0,0,0,0.0,0.0
2026,7,21,12,43,?9?9?9?9E0?9?9?9*9*9?9?9?9?9?9?9*9?9*9*9?9*9,30.66,23.49,64.2,0,0,0,0,0,0.5,0,0,9999,9999,9,999999999,0,0.0,0,0,0.0,0.0
2026,7,21,12,44,?9?9?9?9E0?9?9?9*9*9?9?9?9?9?9?9*9?9*9*9?9*9,30.66,23.49,64.2,0,0,0,0,0,0.5,0,0,9999,9999,9,999999999,0,0.0,0,0,0.0,0.0
2026,7,21,12,45,?9?9?9?9E0?9?9?9*9*9?9?9?9?9?9?9*9?9*9*9?9*9,30.66,23.49,64.2,0,0,0,0,0,0.5,0,0,9999,9999,9,999999999,0,0.0,0,0,0.0,0.0
2026,7,21,12,46,?9?9?9?9E0?9?9?9*9*9?9?9?9?9?9?9*9?9*9*9?9*9,30.66,23.49,64.2,0,0,0,0,0,0.5,0,0,9999,9999,9,999999999,0,0.0,0,0,0.0,0.0
2026,7,21,12,47,?9?9?9?9E0?9?9?9*9*9?9?9?9?9?9?9*9?9*9*9?9*9,30.66,23.49,64.2,0,0,0,0,0,0.5,0,0,9999,9999,9,999999999,0,0.0,0,0,0.0,0.0
2026,7,21,12,48,?9?9?9?9E0?9?9?9*9*9?9?9?9?9?9?9*9?9*9*9?9*9,30.66,23.49,64.2,0,0,0,0,0,0.5,0,0,9999,9999,9,999999999,0,0.0,0,0,0.0,0.0
2026,7,21,12,49,?9?9?9?9E0?9?9?9*9*9?9?9?9?9?9?9*9?9*9*9?9*9,30.66,23.49,64.2,0,0,0,0,0,0.5,0,0,9999,9999,9,999999999,0,0.0,0,0,0.0,0.0
2026,7,21,12,50,?9?9?9?9E0?9?9?9*9*9?9?9?9?9?9?9*9?9*9*9?9*9,30.66,23.49,64.2,0,0,0,0,0,0.5,0,0,9999,9999,9,999999999,0,0.0,0,0,0.0,0.0
2026,7,21,12,51,?9?9?9?9E0?9?9?9*9*9?9?9?9?9?9?9*9?9*9*9?9*9,30.66,23.49,64.2,0,0,0,0,0,0.5,0,0,9999,9999,9,999999999,0,0.0,0,0,0.0,0.0
2026,7,21,12,52,?9?9?9?9E0?9?9?9*9*9?9?9?9?9?9?9*9?9*9*9?9*9,30.66,23.49,64.2,0,0,0,0,0,0.5,0,0,9999,9999,9,999999999,0,0.0,0,0,0.0,0.0
2026,7,21,12,53,?9?9?9?9E0?9?9?9*9*9?9?9?9?9?9?9*9?9*9*9?9*9,30.66,23.49,64.2,0,0,0,0,0,0.5,0,0,9999,9999,9,999999999,0,0.0,0,0,0.0,0.0
2026,7,21,12,54,?9?9?9?9E0?9?9?9*9*9?9?9?9?9?9?9*9?9*9*9?9*9,30.66,23.49,64.2,0,0,0,0,0,0.5,0,0,9999,9999,9,999999999,0,0.0,0,0,0.0,0.0
2026,7,21,12,55,?9?9?9?9E0?9?9?9*9*9?9?9?9?9?9?9*9?9*9*9?9*9,30.66,23.49,64.2,0,0,0,0,0,0.5,0,0,9999,9999,9,999999999,0,0.0,0,0,0.0,0.0
2026,7,21,12,56,?9?9?9?9E0?9?9?9*9*9?9?9?9?9?9?9*9?9*9*9?9*9,30.66,23.49,64.2,0,0,0,0,0,0.5,0,0,9999,9999,9,999999999,0,0.0,0,0,0.0,0.0
2026,7,21,12,57,?9?9?9?9E0?9?9?9*9*9?9?9?9?9?9?9*9?9*9*9?9*9,30.66,23.49,64.2,0,0,0,0,0,0.5,0,0,9999,9999,9,999999999,0,0.0,0,0,0.0,0.0
2026,7,21,12,58,?9?9?9?9E0?9?9?9*9*9?9?9?9?9?9?9*9?9*9*9?9*9,30.66,23.49,64.2,0,0,0,0,0,0.5,0,0,9999,9999,9,999999999,0,0.0,0,0,0.0,0.0
2026,7,21,12,59,?9?9?9?9E0?9?9?9*9*9?9?9?9?9?9?9*9?9*9*9?9*9,30.66,23.49,64.2,0,0,0,0,0,0.5,0,0,9999,9999,9,999999999,0,0.0,0,0,0.0,0.0
2026,7,21,12,60,?9?9?9?9E0?9?9?9*9*9?9?9?9?9?9?9*9?9*9*9?9*9,30.66,23.49,64.2,0,0,0,0,0,0.5,0,0,9999,9999,9,999999999,0,0.0,0,0,0.0,0.0
2026,7,21,13,1,?9?9?9?9E0?9?9?9*9*9?9?9?9?9?9?9*9?9*9*9?9*9,30.66,23.49,64.2,0,0,0,0,0,0.5,0,0,9999,9999,9,999999999,0,0.0,0,0,0.0,0.0
2026,7,21,13,2,?9?9?9?9E0?9?9?9*9*9?9?9?9?9?9?9*9?9*9*9?9*9,30.66,23.49,64.2,0,0,0,0,0,0.5,0,0,9999,9999,9,999999999,0,0.0,0,0,0.0,0.0
2026,7,21,13,3,?9?9?9?9E0?9?9?9*9*9?9?9?9?9?9?9*9?9*9*9?9*9,30.66,23.49,64.2,0,0,0,0,0,0.5,0,0,9999,9999,9,999999999,0,0.0,0,0,0.0,0.0
2026,7,21,13,4,?9?9?9?9E0?9?9?9*9*9?9?9?9?9?9?9*9?9*9*9?9*9,30.66,23.49,64.2,0,0,0,0,0,0.5,0,0,9999,9999,9,999999999,0,0.0,0,0,0.0,0.0
2026,7,21,13,5,?9?9?9?9E0?9?9?9*9*9?9?9?9?9?9?9*9?9*9*9?9*9,30.66,23.49,64.2,0,0,0,0,0,0.5,0,0,9999,9999,9,999999999,0,0.0,0,0,0.0,0.0
2026,7,21,13,6,?9?9?9?9E0?9?9?9*9*9?9?9?9?9?9?9*9?9*9*9?9*9,30.66,23.49,64.2,0,0,0,0,0,0.5,0,0,9999,9999,9,999999999,0,0.0,0,0,0.0,0.0
2026,7,21,13,7,?9?9?9?9E0?9?9?9*9*9?9?9?9?9?9?9*9?9*9*9?9*9,30.66,23.49,64.2,0,0,0,0,0,0.5,0,0,9999,9999,9,999999999,0,0.0,0,0,0.0,0.0
2026,7,21,13,8,?9?9?9?9E0?9?9?9*9*9?9?9?9?9?9?9*9?9*9*9?9*9,30.66,23.49,64.2,0,0,0,0,0,0.5,0,0,9999,9999,9,999999999,0,0.0,0,0,0.0,0.0
2026,7,21,13,9,?9?9?9?9E0?9?9?9*9*9?9?9?9?9?9?9*9?9*9*9?9*9,30.66,23.49,64.2,0,0,0,0,0,0.5,0,0,9999,9999,9,999999999,0,0.0,0,0,0.0,0.0
2026,7,21,13,10,?9?9?9?9E0?9?9?9*9*9?9?9?9?9?9?9*9?9*9*9?9*9,30.66,23.49,64.2,0,0,0,0,0,0.5,0,0,9999,9999,9,999999999,0,0.0,0,0,0.0,0.0
2026,7,21,13,11,?9?9?9?9E0?9?9?9*9*9?9?9?9?9?9?9*9?9*9*9?9*9,30.66,23.49,64.2,0,0,0,0,0,0.5,0,0,9999,9999,9,999999999,0,0.0,0,0,0.0,0.0
2026,7,21,13,12,?9?9?9?9E0?9?9?9*9*9?9?9?9?9?9?9*9?9*9*9?9*9,30.66,23.49,64.2,0,0,0,0,0,0.5,0,0,9999,9999,9,999999999,0,0.0,0,0,0.0,0.0
2026,7,21,13,13,?9?9?9?9E0?9?9?9*9*9?9?9?9?9?9?9*9?9*9*9?9*9,30.66,23.49,64.2,0,0,0,0,0,0.5,0,0,9999,9999,9,999999999,0,0.0,0,0,0.0,0.0
2026,7,21,13,14,?9?9?9?9E0?9?9?9*9*9?9?9?9?9?9?9*9?9*9*9?9*9,30.66,23.49,64.2,0,0,0,0,0,0.5,0,0,9999,9999,9,999999999,0,0.0,0,0,0.0,0.0
2026,7,21,13,15,?9?9?9?9E0?9?9?9*9*9?9?9?9?9?9?9*9?9*9*9?9*9,30.66,23.49,64.2,0,0,0,0,0,0.5,0,0,9999,9999,9,999999999,0,0.0,0,0,0.0,0.0
2026,7,21,13,16,?9?9?9?9E0?9?9?9*9*9?9?9?9?9?9?9*9?9*9*9?9*9,30.66,23.49,64.2,0,0,0,0,0,0.5,0,0,9999,9999,9,999999999,0,0.0,0,0,0.0,0.0
2026,7,21,13,17,?9?9?9?9E0?9?9?9*9*9?9?9?9?9?9?9*9?9*9*9?9*9,30.66,23.49,64.2,0,0,0,0,0,0.5,0,0,9999,9999,9,999999999,0,0.0,0,0,0.0,0.0
2026,7,21,13,18,?9?9?9?9E0?9?9?9*9*9?9?9?9?9?9?9*9?9*9*9?9*9,30.66,23.49,64.2,0,0,0,0,0,0.5,0,0,9999,9999,9,999999999,0,0.0,0,0,0.0,0.0
2026,7,21,13,19,?9?9?9?9E0?9?9?9*9*9?9?9?9?9?9?9*9?9*9*9?9*9,30.66,23.49,64.2,0,0,0,0,0,0.5,0,0,9999,9999,9,999999999,0,0.0,0,0,0.0,0.0
2026,7,21,13,20,?9?9?9?9E0?9?9?9*9*9?9?9?9?9?9?9*9?9*9*9?9*9,30.66,23.49,64.2,0,0,0,0,0,0.5,0,0,9999,9999,9,999999999,0,0.0,0,0,0.0,0.0
2026,7,21,13,21,?9?9?9?9E0?9?9?9*9*9?9?9?9?9?9?9*9?9*9*9?9*9,30.66,23.49,64.2,0,0,0,0,0,0.5,0,0,9999,9999,9,999999999,0,0.0,0,0,0.0,0.0
2026,7,21,13,22,?9?9?9?9E0?9?9?9*9*9?9?9?9?9?9?9*9?9*9*9?9*9,30.66,23.49,64.2,0,0,0,0,0,0.5,0,0,9999,9999,9,999999999,0,0.0,0,0,0.0,0.0
2026,7,21,13,23,?9?9?9?9E0?9?9?9*9*9?9?9?9?9?9?9*9?9*9*9?9*9,30.66,23.49,64.2,0,0,0,0,0,0.5,0,0,9999,9999,9,999999999,0,0.0,0,0,0.0,0.0
2026,7,21,13,24,?9?9?9?9E0?9?9?9*9*9?9?9?9?9?9?9*9?9*9*9?9*9,30.66,23.49,64.2,0,0,0,0,0,0.5,0,0,9999,9999,9,999999999,0,0.0,0,0,0.0,0.0
2026,7,21,13,25,?9?9?9?9E0?9?9?9*9*9?9?9?9?9?9?9*9?9*9*9?9*9,30.66,23.49,64.2,0,0,0,0,0,0.5,0,0,9999,9999,9,999999999,0,0.0,0,0,0.0,0.0
2026,7,21,13,26,?9?9?9?9E0?9?9?9*9*9?9?9?9?9?9?9*9?9*9*9?9*9,30.66,23.49,64.2,0,0,0,0,0,0.5,0,0,9999,9999,9,999999999,0,0.0,0,0,0.0,0.0
2026,7,21,13,27,?9?9?9?9E0?9?9?9*9*9?9?9?9?9?9?9*9?9*9*9?9*9,30.66,23.49,64.2,0,0,0,0,0,0.5,0,0,9999,9999,9,999999999,0,0.0,0,0,0.0,0.0
2026,7,21,13,28,?9?9?9?9E0?9?9?9*9*9?9?9?9?9?9?9*9?9*9*9?9*9,30.66,23.49,64.2,0,0,0,0,0,0.5,0,0,9999,9999,9,999999999,0,0.0,0,0,0.0,0.0
2026,7,21,13,29,?9?9?9?9E0?9?9?9*9*9?9?9?9?9?9?9*9?9*9*9?9*9,30.66,23.49,64.2,0,0,0,0,0,0.5,0,0,9999,9999,9,999999999,0,0.0,0,0,0.0,0.0
2026,7,21,13,30,?9?9?9?9E0?9?9?9*9*9?9?9?9?9?9?9*9?9*9*9?9*9,30.66,23.49,64.2,0,0,0,0,0,0.5,0,0,9999,9999,9,999999999,0,0.0,0,0,0.0,0.0
2026,7,21,13,31,?9?9?9?9E0?9?9?9*9*9?9?9?9?9?9?9*9?9*9*9?9*9,30.66,23.49,64.2,0,0,0,0,0,0.5,0,0,9999,9999,9,999999999,0,0.0,0,0,0.0,0.0
2026,7,21,13,32,?9?9?9?9E0?9?9?9*9*9?9?9?9?9?9?9*9?9*9*9?9*9,30.66,23.49,64.2,0,0,0,0,0,0.5,0,0,9999,9999,9,999999999,0,0.0,0,0,0.0,0.0
2026,7,21,13,33,?9?9?9?9E0?9?9?9*9*9?9?9?9?9?9?9*9?9*9*9?9*9,30.66,23.49,64.2,0,0,0,0,0,0.5,0,0,9999,9999,9,999999999,0,0.0,0,0,0.0,0.0
2026,7,21,13,34,?9?9?9?9E0?9?9?9*9*9?9?9?9?9?9?9*9?9*9*9?9*9,30.66,23.49,64.2,0,0,0,0,0,0.5,0,0,9999,9999,9,999999999,0,0.0,0,0,0.0,0.0
2026,7,21,13,35,?9?9?9?9E0?9?9?9*9*9?9?9?9?9?9?9*9?9*9*9?9*9,30.66,23.49,64.2,0,0,0,0,0,0.5,0,0,9999,9999,9,999999999,0,0.0,0,0,0.0,0.0
2026,7,21,13,36,?9?9?9?9E0?9?9?9*9*9?9?9?9?9?9?9*9?9*9*9?9*9,30.66,23.49,64.2,0,0,0,0,0,0.5,0,0,9999,9999,9,999999999,0,0.0,0,0,0.0,0.0
2026,7,21,13,37,?9?9?9?9E0?9?9?9*9*9?9?9?9?9?9?9*9?9*9*9?9*9,30.66,23.49,64.2,0,0,0,0,0,0.5,0,0,9999,9999,9,999999999,0,0.0,0,0,0.0,0.0
2026,7,21,13,38,?9?9?9?9E0?9?9?9*9*9?9?9?9?9?9?9*9?9*9*9?9*9,30.66,23.49,64.2,0,0,0,0,0,0.5,0,0,9999,9999,9,999999999,0,0.0,0,0,0.0,0.0
2026,7,21,13,39,?9?9?9?9E0?9?9?9*9*9?9?9?9?9?9?9*9?9*9*9?9*9,30.66,23.49,64.2,0,0,0,0,0,0.5,0,0,9999,9999,9,999999999,0,0.0,0,0,0.0,0.0
2026,7,21,13,40,?9?9?9?9E0?9?9?9*9*9?9?9?9?9?9?9*9?9*9*9?9*9,30.66,23.49,64.2,0,0,0,0,0,0.5,0,0,9999,9999,9,999999999,0,0.0,0,0,0.0,0.0
2026,7,21,13,41,?9?9?9?9E0?9?9?9*9*9?9?9?9?9?9?9*9?9*9*9?9*9,30.66,23.49,64.2,0,0,0,0,0,0.5,0,0,9999,9999,9,999999999,0,0.0,0,0,0.0,0.0
2026,7,21,13,42,?9?9?9?9E0?9?9?9*9*9?9?9?9?9?9?9*9?9*9*9?9*9,30.66,23.49,64.2,0,0,0,0,0,0.5,0,0,9999,9999,9,999999999,0,0.0,0,0,0.0,0.0
2026,7,21,13,43,?9?9?9?9E0?9?9?9*9*9?9?9?9?9?9?9*9?9*9*9?9*9,30.66,23.49,64.2,0,0,0,0,0,0.5,0,0,9999,9999,9,999999999,0,0.0,0,0,0.0,0.0
2026,7,21,13,44,?9?9?9?9E0?9?9?9*9*9?9?9?9?9?9?9*9?9*9*9?9*9,30.66,23.49,64.2,0,0,0,0,0,0.5,0,0,9999,9999,9,999999999,0,0.0,0,0,0.0,0.0
2026,7,21,13,45,?9?9?9?9E0?9?9?9*9*9?9?9?9?9?9?9*9?9*9*9?9*9,30.66,23.49,64.2,0,0,0,0,0,0.5,0,0,9999,9999,9,999999999,0,0.0,0,0,0.0,0.0
2026,7,21,13,46,?9?9?9?9E0?9?9?9*9*9?9?9?9?9?9?9*9?9*9*9?9*9,30.66,23.49,64.2,0,0,0,0,0,0.5,0,0,9999,9999,9,999999999,0,0.0,0,0,0.0,0.0
2026,7,21,13,47,?9?9?9?9E0?9?9?9*9*9?9?9?9?9?9?9*9?9*9*9?9*9,30.66,23.49,64.2,0,0,0,0,0,0.5,0,0,9999,9999,9,999999999,0,0.0,0,0,0.0,0.0
2026,7,21,13,48,?9?9?9?9E0?9?9?9*9*9?9?9?9?9?9?9*9?9*9*9?9*9,30.66,23.49,64.2,0,0,0,0,0,0.5,0,0,9999,9999,9,999999999,0,0.0,0,0,0.0,0.0
2026,7,21,13,49,?9?9?9?9E0?9?9?9*9*9?9?9?9?9?9?9*9?9*9*9?9*9,30.66,23.49,64.2,0,0,0,0,0,0.5,0,0,9999,9999,9,999999999,0,0.0,0,0,0.0,0.0
2026,7,21,13,50,?9?9?9?9E0?9?9?9*9*9?9?9?9?9?9?9*9?9*9*9?9*9,30.66,23.49,64.2,0,0,0,0,0,0.5,0,0,9999,9999,9,999999999,0,0.0,0,0,0.0,0.0
2026,7,21,13,51,?9?9?9?9E0?9?9?9*9*9?9?9?9?9?9?9*9?9*9*9?9*9,30.66,23.49,64.2,0,0,0,0,0,0.5,0,0,9999,9999,9,999999999,0,0.0,0,0,0.0,0.0
2026,7,21,13,52,?9?9?9?9E0?9?9?9*9*9?9?9?9?9?9?9*9?9*9*9?9*9,30.66,23.49,64.2,0,0,0,0,0,0.5,0,0,9999,9999,9,999999999,0,0.0,0,0,0.0,0.0
2026,7,21,13,53,?9?9?9?9E0?9?9?9*9*9?9?9?9?9?9?9*9?9*9*9?9*9,30.66,23.49,64.2,0,0,0,0,0,0.5,0,0,9999,9999,9,999999999,0,0.0,0,0,0.0,0.0
2026,7,21,13,54,?9?9?9?9E0?9?9?9*9*9?9?9?9?9?9?9*9?9*9*9?9*9,30.66,23.49,64.2,0,0,0,0,0,0.5,0,0,9999,9999,9,999999999,0,0.0,0,0,0.0,0.0
2026,7,21,13,55,?9?9?9?9E0?9?9?9*9*9?9?9?9?9?9?9*9?9*9*9?9*9,30.66,23.49,64.2,0,0,0,0,0,0.5,0,0,9999,9999,9,999999999,0,0.0,0,0,0.0,0.0
2026,7,21,13,56,?9?9?9?9E0?9?9?9*9*9?9?9?9?9?9?9*9?9*9*9?9*9,30.66,23.49,64.2,0,0,0,0,0,0.5,0,0,9999,9999,9,999999999,0,0.0,0,0,0.0,0.0
2026,7,21,13,57,?9?9?9?9E0?9?9?9*9*9?9?9?9?9?9?9*9?9*9*9?9*9,30.66,23.49,64.2,0,0,0,0,0,0.5,0,0,9999,9999,9,999999999,0,0.0,0,0,0.0,0.0
2026,7,21,13,58,?9?9?9?9E0?9?9?9*9*9?9?9?9?9?9?9*9?9*9*9?9*9,30.66,23.49,64.2,0,0,0,0,0,0.5,0,0,9999,9999,9,999999999,0,0.0,0,0,0.0,0.0
2026,7,21,13,59,?9?9?9?9E0?9?9?9*9*9?9?9?9?9?9?9*9?9*9*9?9*9,30.66,23.49,64.2,0,0,0,0,0,0.5,0,0,9999,9999,9,999999999,0,0.0,0,0,0.0,0.0
2026,7,21,13,60,?9?9?9?9E0?9?9?9*9*9?9?9?9?9?9?9*9?9*9*9?9*9,30.66,23.49,64.2,0,0,0,0,0,0.5,0,0,9999,9999,9,999999999,0,0.0,0,0,0.0,0.0
2026,7,21,14,1,?9?9?9?9E0?9?9?9*9*9?9?9?9?9?9?9*9?9*9*9?9*9,30.66,23.49,64.2,0,0,0,0,0,0.5,0,0,9999,9999,9,999999999,0,0.0,0,0,0.0,0.0
2026,7,21,14,2,?9?9?9?9E0?9?9?9*9*9?9?9?9?9?9?9*9?9*9*9?9*9,30.66,23.49,64.2,0,0,0,0,0,0.5,0,0,9999,9999,9,999999999,0,0.0,0,0,0.0,0.0
2026,7,21,14,3,?9?9?9?9E0?9?9?9*9*9?9?9?9?9?9?9*9?9*9*9?9*9,30.66,23.49,64.2,0,0,0,0,0,0.5,0,0,9999,9999,9,999999999,0,0.0,0,0,0.0,0.0
2026,7,21,14,4,?9?9?9?9E0?9?9?9*9*9?9?9?9?9?9?9*9?9*9*9?9*9,30.66,23.49,64.2,0,0,0,0,0,0.5,0,0,9999,9999,9,999999999,0,0.0,0,0,0.0,0.0
2026,7,21,14,5,?9?9?9?9E0?9?9?9*9*9?9?9?9?9?9?9*9?9*9*9?9*9,30.66,23.49,64.2,0,0,0,0,0,0.5,0,0,9999,9999,9,999999999,0,0.0,0,0,0.0,0.0
2026,7,21,14,6,?9?9?9?9E0?9?9?9*9*9?9?9?9?9?9?9*9?9*9*9?9*9,30.66,23.49,64.2,0,0,0,0,0,0.5,0,0,9999,9999,9,999999999,0,0.0,0,0,0.0,0.0
2026,7,21,14,7,?9?9?9?9E0?9?9?9*9*9?9?9?9?9?9?9*9?9*9*9?9*9,30.66,23.49,64.2,0,0,0,0,0,0.5,0,0,9999,9999,9,999999999,0,0.0,0,0,0.0,0.0
2026,7,21,14,8,?9?9?9?9E0?9?9?9*9*9?9?9?9?9?9?9*9?9*9*9?9*9,30.66,23.49,64.2,0,0,0,0,0,0.5,0,0,9999,9999,9,999999999,0,0.0,0,0,0.0,0.0
2026,7,21,14,9,?9?9?9?9E0?9?9?9*9*9?9?9?9?9?9?9*9?9*9*9?9*9,30.66,23.49,64.2,0,0,0,0,0,0.5,0,0,9999,9999,9,999999999,0,0.0,0,0,0.0,0.0
2026,7,21,14,10,?9?9?9?9E0?9?9?9*9*9?9?9?9?9?9?9*9?9*9*9?9*9,30.66,23.49,64.2,0,0,0,0,0,0.5,0,0,9999,9999,9,999999999,0,0.0,0,0,0.0,0.0
2026,7,21,14,11,?9?9?9?9E0?9?9?9*9*9?9?9?9?9?9?9*9?9*9*9?9*9,30.66,23.49,64.2,0,0,0,0,0,0.5,0,0,9999,9999,9,999999999,0,0.0,0,0,0.0,0.0
2026,7,21,14,12,?9?9?9?9E0?9?9?9*9*9?9?9?9?9?9?9*9?9*9*9?9*9,30.66,23.49,64.2,0,0,0,0,0,0.5,0,0,9999,9999,9,999999999,0,0.0,0,0,0.0,0.0
2026,7,21,14,13,?9?9?9?9E0?9?9?9*9*9?9?9?9?9?9?9*9?9*9*9?9*9,30.66,23.49,64.2,0,0,0,0,0,0.5,0,0,9999,9999,9,999999999,0,0.0,0,0,0.0,0.0
2026,7,21,14,14,?9?9?9?9E0?9?9?9*9*9?9?9?9?9?9?9*9?9*9*9?9*9,30.66,23.49,64.2,0,0,0,0,0,0.5,0,0,9999,9999,9,999999999,0,0.0,0,0,0.0,0.0
2026,7,21,14,15,?9?9?9?9E0?9?9?9*9*9?9?9?9?9?9?9*9?9*9*9?9*9,30.66,23.49,64.2,0,0,0,0,0,0.5,0,0,9999,9999,9,999999999,0,0.0,0,0,0.0,0.0
2026,7,21,14,16,?9?9?9?9E0?9?9?9*9*9?9?9?9?9?9?9*9?9*9*9?9*9,30.66,23.49,64.2,0,0,0,0,0,0.5,0,0,9999,9999,9,999999999,0,0.0,0,0,0.0,0.0
2026,7,21,14,17,?9?9?9?9E0?9?9?9*9*9?9?9?9?9?9?9*9?9*9*9?9*9,30.66,23.49,64.2,0,0,0,0,0,0.5,0,0,9999,9999,9,999999999,0,0.0,0,0,0.0,0.0
2026,7,21,14,18,?9?9?9?9E0?9?9?9*9*9?9?9?9?9?9?9*9?9*9*9?9*9,30.66,23.49,64.2,0,0,0,0,0,0.5,0,0,9999,9999,9,999999999,0,0.0,0,0,0.0,0.0
2026,7,21,14,19,?9?9?9?9E0?9?9?9*9*9?9?9?9?9?9?9*9?9*9*9?9*9,30.66,23.49,64.2,0,0,0,0,0,0.5,0,0,9999,9999,9,999999999,0,0.0,0,0,0.0,0.0
2026,7,21,14,20,?9?9?9?9E0?9?9?9*9*9?9?9?9?9?9?9*9?9*9*9?9*9,30.66,23.49,64.2,0,0,0,0,0,0.5,0,0,9999,9999,9,999999999,0,0.0,0,0,0.0,0.0
2026,7,21,14,21,?9?9?9?9E0?9?9?9*9*9?9?9?9?9?9?9*9?9*9*9?9*9,30.66,23.49,64.2,0,0,0,0,0,0.5,0,0,9999,9999,9,999999999,0,0.0,0,0,0.0,0.0
2026,7,21,14,22,?9?9?9?9E0?9?9?9*9*9?9?9?9?9?9?9*9?9*9*9?9*9,30.66,23.49,64.2,0,0,0,0,0,0.5,0,0,9999,9999,9,999999999,0,0.0,0,0,0.0,0.0
2026,7,21,14,23,?9?9?9?9E0?9?9?9*9*9?9?9?9?9?9?9*9?9*9*9?9*9,30.66,23.49,64.2,0,0,0,0,0,0.5,0,0,9999,9999,9,999999999,0,0.0,0,0,0.0,0.0
2026,7,21,14,24,?9?9?9?9E0?9?9?9*9*9?9?9?9?9?9?9*9?9*9*9?9*9,30.66,23.49,64.2,0,0,0,0,0,0.5,0,0,9999,9999,9,999999999,0,0.0,0,0,0.0,0.0
2026,7,21,14,25,?9?9?9?9E0?9?9?9*9*9?9?9?9?9?9?9*9?9*9*9?9*9,30.66,23.49,64.2,0,0,0,0,0,0.5,0,0,9999,9999,9,999999999,0,0.0,0,0,0.0,0.0
2026,7,21,14,26,?9?9?9?9E0?9?9?9*9*9?9?9?9?9?9?9*9?9*9*9?9*9,30.66,23.49,64.2,0,0,0,0,0,0.5,0,0,9999,9999,9,999999999,0,0.0,0,0,0.0,0.0
2026,7,21,14,27,?9?9?9?9E0?9?9?9*9*9?9?9?9?9?9?9*9?9*9*9?9*9,30.66,23.49,64.2,0,0,0,0,0,0.5,0,0,9999,9999,9,999999999,0,0.0,0,0,0.0,0.0
2026,7,21,14,28,?9?9?9?9E0?9?9?9*9*9?9?9?9?9?9?9*9?9*9*9?9*9,30.66,23.49,64.2,0,0,0,0,0,0.5,0,0,9999,9999,9,999999999,0,0.0,0,0,0.0,0.0
2026,7,21,14,29,?9?9?9?9E0?9?9?9*9*9?9?9?9?9?9?9*9?9*9*9?9*9,30.66,23.49,64.2,0,0,0,0,0,0.5,0,0,9999,9999,9,999999999,0,0.0,0,0,0.0,0.0
2026,7,21,14,30,?9?9?9?9E0?9?9?9*9*9?9?9?9?9?9?9*9?9*9*9?9*9,30.66,23.49,64.2,0,0,0,0,0,0.5,0,0,9999,9999,9,999999999,0,0.0,0,0,0.0,0.0
2026,7,21,14,31,?9?9?9?9E0?9?9?9*9*9?9?9?9?9?9?9*9?9*9*9?9*9,30.66,23.49,64.2,0,0,0,0,0,0.5,0,0,9999,9999,9,999999999,0,0.0,0,0,0.0,0.0
2026,7,21,14,32,?9?9?9?9E0?9?9?9*9*9?9?9?9?9?9?9*9?9*9*9?9*9,30.66,23.49,64.2,0,0,0,0,0,0.5,0,0,9999,9999,9,999999999,0,0.0,0,0,0.0,0.0
2026,7,21,14,33,?9?9?9?9E0?9?9?9*9*9?9?9?9?9?9?9*9?9*9*9?9*9,30.66,23.49,64.2,0,0,0,0,0,0.5,0,0,9999,9999,9,999999999,0,0.0,0,0,0.0,0.0
2026,7,21,14,34,?9?9?9?9E0?9?9?9*9*9?9?9?9?9?9?9*9?9*9*9?9*9,30.66,23.49,64.2,0,0,0,0,0,0.5,0,0,9999,9999,9,999999999,0,0.0,0,0,0.0,0.0
2026,7,21,14,35,?9?9?9?9E0?9?9?9*9*9?9?9?9?9?9?9*9?9*9*9?9*9,30.66,23.49,64.2,0,0,0,0,0,0.5,0,0,9999,9999,9,999999999,0,0.0,0,0,0.0,0.0
2026,7,21,14,36,?9?9?9?9E0?9?9?9*9*9?9?9?9?9?9?9*9?9*9*9?9*9,30.66,23.49,64.2,0,0,0,0,0,0.5,0,0,9999,9999,9,999999999,0,0.0,0,0,0.0,0.0
2026,7,21,14,37,?9?9?9?9E0?9?9?9*9*9?9?9?9?9?9?9*9?9*9*9?9*9,30.66,23.49,64.2,0,0,0,0,0,0.5,0,0,9999,9999,9,999999999,0,0.0,0,0,0.0,0.0
2026,7,21,14,38,?9?9?9?9E0?9?9?9*9*9?9?9?9?9?9?9*9?9*9*9?9*9,30.66,23.49,64.2,0,0,0,0,0,0.5,0,0,9999,9999,9,999999999,0,0.0,0,0,0.0,0.0
2026,7,21,14,39,?9?9?9?9E0?9?9?9*9*9?9?9?9?9?9?9*9?9*9*9?9*9,30.66,23.49,64.2,0,0,0,0,0,0.5,0,0,9999,9999,9,999999999,0,0.0,0,0,0.0,0.0
2026,7,21,14,40,?9?9?9?9E0?9?9?9*9*9?9?9?9?9?9?9*9?9*9*9?9*9,30.66,23.49,64.2,0,0,0,0,0,0.5,0,0,9999,9999,9,999999999,0,0.0,0,0,0.0,0.0
2026,7,21,14,41,?9?9?9?9E0?9?9?9*9*9?9?9?9?9?9?9*9?9*9*9?9*9,30.66,23.49,64.2,0,0,0,0,0,0.5,0,0,9999,9999,9,999999999,0,0.0,0,0,0.0,0.0
2026,7,21,14,42,?9?9?9?9E0?9?9?9*9*9?9?9?9?9?9?9*9?9*9*9?9*9,30.66,23.49,64.2,0,0,0,0,0,0.5,0,0,9999,9999,9,999999999,0,0.0,0,0,0.0,0.0
2026,7,21,14,43,?9?9?9?9E0?9?9?9*9*9?9?9?9?9?9?9*9?9*9*9?9*9,30.66,23.49,64.2,0,0,0,0,0,0.5,0,0,9999,9999,9,999999999,0,0.0,0,0,0.0,0.0
2026,7,21,14,44,?9?9?9?9E0?9?9?9*9*9?9?9?9?9?9?9*9?9*9*9?9*9,30.66,23.49,64.2,0,0,0,0,0,0.5,0,0,9999,9999,9,999999999,0,0.0,0,0,0.0,0.0
2026,7,21,14,45,?9?9?9?9E0?9?9?9*9*9?9?9?9?9?9?9*9?9*9*9?9*9,30.66,23.49,64.2,0,0,0,0,0,0.5,0,0,9999,9999,9,999999999,0,0.0,0,0,0.0,0.0
2026,7,21,14,46,?9?9?9?9E0?9?9?9*9*9?9?9?9?9?9?9*9?9*9*9?9*9,30.66,23.49,64.2,0,0,0,0,0,0.5,0,0,9999,9999,9,999999999,0,0.0,0,0,0.0,0.0
2026,7,21,14,47,?9?9?9?9E0?9?9?9*9*9?9?9?9?9?9?9*9?9*9*9?9*9,30.66,23.49,64.2,0,0,0,0,0,0.5,0,0,9999,9999,9,999999999,0,0.0,0,0,0.0,0.0
2026,7,21,14,48,?9?9?9?9E0?9?9?9*9*9?9?9?9?9?9?9*9?9*9*9?9*9,30.66,23.49,64.2,0,0,0,0,0,0.5,0,0,9999,9999,9,999999999,0,0.0,0,0,0.0,0.0
2026,7,21,14,49,?9?9?9?9E0?9?9?9*9*9?9?9?9?9?9?9*9?9*9*9?9*9,30.66,23.49,64.2,0,0,0,0,0,0.5,0,0,9999,9999,9,999999999,0,0.0,0,0,0.0,0.0
2026,7,21,14,50,?9?9?9?9E0?9?9?9*9*9?9?9?9?9?9?9*9?9*9*9?9*9,30.66,23.49,64.2,0,0,0,0,0,0.5,0,0,9999,9999,9,999999999,0,0.0,0,0,0.0,0.0
2026,7,21,14,51,?9?9?9?9E0?9?9?9*9*9?9?9?9?9?9?9*9?9*9*9?9*9,30.66,23.49,64.2,0,0,0,0,0,0.5,0,0,9999,9999,9,999999999,0,0.0,0,0,0.0,0.0
2026,7,21,14,52,?9?9?9?9E0?9?9?9*9*9?9?9?9?9?9?9*9?9*9*9?9*9,30.66,23.49,64.2,0,0,0,0,0,0.5,0,0,9999,9999,9,999999999,0,0.0,0,0,0.0,0.0
2026,7,21,14,53,?9?9?9?9E0?9?9?9*9*9?9?9?9?9?9?9*9?9*9*9?9*9,30.66,23.49,64.2,0,0,0,0,0,0.5,0,0,9999,9999,9,999999999,0,0.0,0,0,0.0,0.0
2026,7,21,14,54,?9?9?9?9E0?9?9?9*9*9?9?9?9?9?9?9*9?9*9*9?9*9,30.66,23.49,64.2,0,0,0,0,0,0.5,0,0,9999,9999,9,999999999,0,0.0,0,0,0.0,0.0
2026,7,21,14,55,?9?9?9?9E0?9?9?9*9*9?9?9?9?9?9?9*9?9*9*9?9*9,30.66,23.49,64.2,0,0,0,0,0,0.5,0,0,9999,9999,9,999999999,0,0.0,0,0,0.0,0.0
2026,7,21,14,56,?9?9?9?9E0?9?9?9*9*9?9?9?9?9?9?9*9?9*9*9?9*9,30.66,23.49,64.2,0,0,0,0,0,0.5,0,0,9999,9999,9,999999999,0,0.0,0,0,0.0,0.0
2026,7,21,14,57,?9?9?9?9E0?9?9?9*9*9?9?9?9?9?9?9*9?9*9*9?9*9,30.66,23.49,64.2,0,0,0,0,0,0.5,0,0,9999,9999,9,999999999,0,0.0,0,0,0.0,0.0
2026,7,21,14,58,?9?9?9?9E0?9?9?9*9*9?9?9?9?9?9?9*9?9*9*9?9*9,30.66,23.49,64.2,0,0,0,0,0,0.5,0,0,9999,9999,9,999999999,0,0.0,0,0,0.0,0.0
2026,7,21,14,59,?9?9?9?9E0?9?9?9*9*9?9?9?9?9?9?9*9?9*9*9?9*9,30.66,23.49,64.2,0,0,0,0,0,0.5,0,0,9999,9999,9,999999999,0,0.0,0,0,0.0,0.0
2026,7,21,14,60,?9?9?9?9E0?9?9?9*9*9?9?9?9?9?9?9*9?9*9*9?9*9,30.66,23.49,64.2,0,0,0,0,0,0.5,0,0,9999,9999,9,999999999,0,0.0,0,0,0.0,0.0
2026,7,21,15,1,?9?9?9?9E0?9?9?9*9*9?9?9?9?9?9?9*9?9*9*9?9*9,30.66,23.49,64.2,0,0,0,0,0,0.5,0,0,9999,9999,9,999999999,0,0.0,0,0,0.0,0.0
2026,7,21,15,2,?9?9?9?9E0?9?9?9*9*9?9?9?9?9?9?9*9?9*9*9?9*9,30.66,23.49,64.2,0,0,0,0,0,0.5,0,0,9999,9999,9,999999999,0,0.0,0,0,0.0,0.0
2026,7,21,15,3,?9?9?9?9E0?9?9?9*9*9?9?9?9?9?9?9*9?9*9*9?9*9,30.66,23.49,64.2,0,0,0,0,0,0.5,0,0,9999,9999,9,999999999,0,0.0,0,0,0.0,0.0
2026,7,21,15,4,?9?9?9?9E0?9?9?9*9*9?9?9?9?9?9?9*9?9*9*9?9*9,30.66,23.49,64.2,0,0,0,0,0,0.5,0,0,9999,9999,9,999999999,0,0.0,0,0,0.0,0.0
2026,7,21,15,5,?9?9?9?9E0?9?9?9*9*9?9?9?9?9?9?9*9?9*9*9?9*9,30.66,23.49,64.2,0,0,0,0,0,0.5,0,0,9999,9999,9,999999999,0,0.0,0,0,0.0,0.0
2026,7,21,15,6,?9?9?9?9E0?9?9?9*9*9?9?9?9?9?9?9*9?9*9*9?9*9,30.66,23.49,64.2,0,0,0,0,0,0.5,0,0,9999,9999,9,999999999,0,0.0,0,0,0.0,0.0
2026,7,21,15,7,?9?9?9?9E0?9?9?9*9*9?9?9?9?9?9?9*9?9*9*9?9*9,30.66,23.49,64.2,0,0,0,0,0,0.5,0,0,9999,9999,9,999999999,0,0.0,0,0,0.0,0.0
2026,7,21,15,8,?9?9?9?9E0?9?9?9*9*9?9?9?9?9?9?9*9?9*9*9?9*9,30.66,23.49,64.2,0,0,0,0,0,0.5,0,0,9999,9999,9,999999999,0,0.0,0,0,0.0,0.0
2026,7,21,15,9,?9?9?9?9E0?9?9?9*9*9?9?9?9?9?9?9*9?9*9*9?9*9,30.66,23.49,64.2,0,0,0,0,0,0.5,0,0,9999,9999,9,999999999,0,0.0,0,0,0.0,0.0
2026,7,21,15,10,?9?9?9?9E0?9?9?9*9*9?9?9?9?9?9?9*9?9*9*9?9*9,30.66,23.49,64.2,0,0,0,0,0,0.5,0,0,9999,9999,9,999999999,0,0.0,0,0,0.0,0.0
2026,7,21,15,11,?9?9?9?9E0?9?9?9*9*9?9?9?9?9?9?9*9?9*9*9?9*9,30.66,23.49,64.2,0,0,0,0,0,0.5,0,0,9999,9999,9,999999999,0,0.0,0,0,0.0,0.0
2026,7,21,15,12,?9?9?9?9E0?9?9?9*9*9?9?9?9?9?9?9*9?9*9*9?9*9,30.66,23.49,64.2,0,0,0,0,0,0.5,0,0,9999,9999,9,999999999,0,0.0,0,0,0.0,0.0
2026,7,21,15,13,?9?9?9?9E0?9?9?9*9*9?9?9?9?9?9?9*9?9*9*9?9*9,30.66,23.49,64.2,0,0,0,0,0,0.5,0,0,9999,9999,9,999999999,0,0.0,0,0,0.0,0.0
2026,7,21,15,14,?9?9?9?9E0?9?9?9*9*9?9?9?9?9?9?9*9?9*9*9?9*9,30.66,23.49,64.2,0,0,0,0,0,0.5,0,0,9999,9999,9,999999999,0,0.0,0,0,0.0,0.0
2026,7,21,15,15,?9?9?9?9E0?9?9?9*9*9?9?9?9?9?9?9*9?9*9*9?9*9,30.66,23.49,64.2,0,0,0,0,0,0.5,0,0,9999,9999,9,999999999,0,0.0,0,0,0.0,0.0
2026,7,21,15,16,?9?9?9?9E0?9?9?9*9*9?9?9?9?9?9?9*9?9*9*9?9*9,30.66,23.49,64.2,0,0,0,0,0,0.5,0,0,9999,9999,9,999999999,0,0.0,0,0,0.0,0.0
2026,7,21,15,17,?9?9?9?9E0?9?9?9*9*9?9?9?9?9?9?9*9?9*9*9?9*9,30.66,23.49,64.2,0,0,0,0,0,0.5,0,0,9999,9999,9,999999999,0,0.0,0,0,0.0,0.0
2026,7,21,15,18,?9?9?9?9E0?9?9?9*9*9?9?9?9?9?9?9*9?9*9*9?9*9,30.66,23.49,64.2,0,0,0,0,0,0.5,0,0,9999,9999,9,999999999,0,0.0,0,0,0.0,0.0
2026,7,21,15,19,?9?9?9?9E0?9?9?9*9*9?9?9?9?9?9?9*9?9*9*9?9*9,30.66,23.49,64.2,0,0,0,0,0,0.5,0,0,9999,9999,9,999999999,0,0.0,0,0,0.0,0.0
2026,7,21,15,20,?9?9?9?9E0?9?9?9*9*9?9?9?9?9?9?9*9?9*9*9?9*9,30.66,23.49,64.2,0,0,0,0,0,0.5,0,0,9999,9999,9,999999999,0,0.0,0,0,0.0,0.0
2026,7,21,15,21,?9?9?9?9E0?9?9?9*9*9?9?9?9?9?9?9*9?9*9*9?9*9,30.66,23.49,64.2,0,0,0,0,0,0.5,0,0,9999,9999,9,999999999,0,0.0,0,0,0.0,0.0
2026,7,21,15,22,?9?9?9?9E0?9?9?9*9*9?9?9?9?9?9?9*9?9*9*9?9*9,30.66,23.49,64.2,0,0,0,0,0,0.5,0,0,9999,9999,9,999999999,0,0.0,0,0,0.0,0.0
2026,7,21,15,23,?9?9?9?9E0?9?9?9*9*9?9?9?9?9?9?9*9?9*9*9?9*9,30.66,23.49,64.2,0,0,0,0,0,0.5,0,0,9999,9999,9,999999999,0,0.0,0,0,0.0,0.0
2026,7,21,15,24,?9?9?9?9E0?9?9?9*9*9?9?9?9?9?9?9*9?9*9*9?9*9,30.66,23.49,64.2,0,0,0,0,0,0.5,0,0,9999,9999,9,999999999,0,0.0,0,0,0.0,0.0
2026,7,21,15,25,?9?9?9?9E0?9?9?9*9*9?9?9?9?9?9?9*9?9*9*9?9*9,30.66,23.49,64.2,0,0,0,0,0,0.5,0,0,9999,9999,9,999999999,0,0.0,0,0,0.0,0.0
2026,7,21,15,26,?9?9?9?9E0?9?9?9*9*9?9?9?9?9?9?9*9?9*9*9?9*9,30.66,23.49,64.2,0,0,0,0,0,0.5,0,0,9999,9999,9,999999999,0,0.0,0,0,0.0,0.0
2026,7,21,15,27,?9?9?9?9E0?9?9?9*9*9?9?9?9?9?9?9*9?9*9*9?9*9,30.66,23.49,64.2,0,0,0,0,0,0.5,0,0,9999,9999,9,999999999,0,0.0,0,0,0.0,0.0
2026,7,21,15,28,?9?9?9?9E0?9?9?9*9*9?9?9?9?9?9?9*9?9*9*9?9*9,30.66,23.49,64.2,0,0,0,0,0,0.5,0,0,9999,9999,9,999999999,0,0.0,0,0,0.0,0.0
2026,7,21,15,29,?9?9?9?9E0?9?9?9*9*9?9?9?9?9?9?9*9?9*9*9?9*9,30.66,23.49,64.2,0,0,0,0,0,0.5,0,0,9999,9999,9,999999999,0,0.0,0,0,0.0,0.0
2026,7,21,15,30,?9?9?9?9E0?9?9?9*9*9?9?9?9?9?9?9*9?9*9*9?9*9,30.66,23.49,64.2,0,0,0,0,0,0.5,0,0,9999,9999,9,999999999,0,0.0,0,0,0.0,0.0
2026,7,21,15,31,?9?9?9?9E0?9?9?9*9*9?9?9?9?9?9?9*9?9*9*9?9*9,30.66,23.49,64.2,0,0,0,0,0,0.5,0,0,9999,9999,9,999999999,0,0.0,0,0,0.0,0.0
2026,7,21,15,32,?9?9?9?9E0?9?9?9*9*9?9?9?9?9?9?9*9?9*9*9?9*9,30.66,23.49,64.2,0,0,0,0,0,0.5,0,0,9999,9999,9,999999999,0,0.0,0,0,0.0,0.0
2026,7,21,15,33,?9?9?9?9E0?9?9?9*9*9?9?9?9?9?9?9*9?9*9*9?9*9,30.66,23.49,64.2,0,0,0,0,0,0.5,0,0,9999,9999,9,999999999,0,0.0,0,0,0.0,0.0
2026,7,21,15,34,?9?9?9?9E0?9?9?9*9*9?9?9?9?9?9?9*9?9*9*9?9*9,30.66,23.49,64.2,0,0,0,0,0,0.5,0,0,9999,9999,9,999999999,0,0.0,0,0,0.0,0.0
2026,7,21,15,35,?9?9?9?9E0?9?9?9*9*9?9?9?9?9?9?9*9?9*9*9?9*9,30.66,23.49,64.2,0,0,0,0,0,0.5,0,0,9999,9999,9,999999999,0,0.0,0,0,0.0,0.0
2026,7,21,15,36,?9?9?9?9E0?9?9?9*9*9?9?9?9?9?9?9*9?9*9*9?9*9,30.66,23.49,64.2,0,0,0,0,0,0.5,0,0,9999,9999,9,999999999,0,0.0,0,0,0.0,0.0
2026,7,21,15,37,?9?9?9?9E0?9?9?9*9*9?9?9?9?9?9?9*9?9*9*9?9*9,30.66,23.49,64.2,0,0,0,0,0,0.5,0,0,9999,9999,9,999999999,0,0.0,0,0,0.0,0.0
2026,7,21,15,38,?9?9?9?9E0?9?9?9*9*9?9?9?9?9?9?9*9?9*9*9?9*9,30.66,23.49,64.2,0,0,0,0,0,0.5,0,0,9999,9999,9,999999999,0,0.0,0,0,0.0,0.0
2026,7,21,15,39,?9?9?9?9E0?9?9?9*9*9?9?9?9?9?9?9*9?9*9*9?9*9,30.66,23.49,64.2,0,0,0,0,0,0.5,0,0,9999,9999,9,999999999,0,0.0,0,0,0.0,0.0
2026,7,21,15,40,?9?9?9?9E0?9?9?9*9*9?9?9?9?9?9?9*9?9*9*9?9*9,30.66,23.49,64.2,0,0,0,0,0,0.5,0,0,9999,9999,9,999999999,0,0.0,0,0,0.0,0.0
2026,7,21,15,41,?9?9?9?9E0?9?9?9*9*9?9?9?9?9?9?9*9?9*9*9?9*9,30.66,23.49,64.2,0,0,0,0,0,0.5,0,0,9999,9999,9,999999999,0,0.0,0,0,0.0,0.0
2026,7,21,15,42,?9?9?9?9E0?9?9?9*9*9?9?9?9?9?9?9*9?9*9*9?9*9,30.66,23.49,64.2,0,0,0,0,0,0.5,0,0,9999,9999,9,999999999,0,0.0,0,0,0.0,0.0
2026,7,21,15,43,?9?9?9?9E0?9?9?9*9*9?9?9?9?9?9?9*9?9*9*9?9*9,30.66,23.49,64.2,0,0,0,0,0,0.5,0,0,9999,9999,9,999999999,0,0.0,0,0,0.0,0.0
2026,7,21,15,44,?9?9?9?9E0?9?9?9*9*9?9?9?9?9?9?9*9?9*9*9?9*9,30.66,23.49,64.2,0,0,0,0,0,0.5,0,0,9999,9999,9,999999999,0,0.0,0,0,0.0,0.0
2026,7,21,15,45,?9?9?9?9E0?9?9?9*9*9?9?9?9?9?9?9*9?9*9*9?9*9,30.66,23.49,64.2,0,0,0,0,0,0.5,0,0,9999,9999,9,999999999,0,0.0,0,0,0.0,0.0
2026,7,21,15,46,?9?9?9?9E0?9?9?9*9*9?9?9?9?9?9?9*9?9*9*9?9*9,30.66,23.49,64.2,0,0,0,0,0,0.5,0,0,9999,9999,9,999999999,0,0.0,0,0,0.0,0.0
2026,7,21,15,47,?9?9?9?9E0?9?9?9*9*9?9?9?9?9?9?9*9?9*9*9?9*9,30.66,23.49,64.2,0,0,0,0,0,0.5,0,0,9999,9999,9,999999999,0,0.0,0,0,0.0,0.0
2026,7,21,15,48,?9?9?9?9E0?9?9?9*9*9?9?9?9?9?9?9*9?9*9*9?9*9,30.66,23.49,64.2,0,0,0,0,0,0.5,0,0,9999,9999,9,999999999,0,0.0,0,0,0.0,0.0
2026,7,21,15,49,?9?9?9?9E0?9?9?9*9*9?9?9?9?9?9?9*9?9*9*9?9*9,30.66,23.49,64.2,0,0,0,0,0,0.5,0,0,9999,9999,9,999999999,0,0.0,0,0,0.0,0.0
2026,7,21,15,50,?9?9?9?9E0?9?9?9*9*9?9?9?9?9?9?9*9?9*9*9?9*9,30.66,23.49,64.2,0,0,0,0,0,0.5,0,0,9999,9999,9,999999999,0,0.0,0,0,0.0,0.0
2026,7,21,15,51,?9?9?9?9E0?9?9?9*9*9?9?9?9?9?9?9*9?9*9*9?9*9,30.66,23.49,64.2,0,0,0,0,0,0.5,0,0,9999,9999,9,999999999,0,0.0,0,0,0.0,0.0
2026,7,21,15,52,?9?9?9?9E0?9?9?9*9*9?9?9?9?9?9?9*9?9*9*9?9*9,30.66,23.49,64.2,0,0,0,0,0,0.5,0,0,9999,9999,9,999999999,0,0.0,0,0,0.0,0.0
2026,7,21,15,53,?9?9?9?9E0?9?9?9*9*9?9?9?9?9?9?9*9?9*9*9?9*9,30.66,23.49,64.2,0,0,0,0,0,0.5,0,0,9999,9999,9,999999999,0,0.0,0,0,0.0,0.0
2026,7,21,15,54,?9?9?9?9E0?9?9?9*9*9?9?9?9?9?9?9*9?9*9*9?9*9,30.66,23.49,64.2,0,0,0,0,0,0.5,0,0,9999,9999,9,999999999,0,0.0,0,0,0.0,0.0
2026,7,21,15,55,?9?9?9?9E0?9?9?9*9*9?9?9?9?9?9?9*9?9*9*9?9*9,30.66,23.49,64.2,0,0,0,0,0,0.5,0,0,9999,9999,9,999999999,0,0.0,0,0,0.0,0.0
2026,7,21,15,56,?9?9?9?9E0?9?9?9*9*9?9?9?9?9?9?9*9?9*9*9?9*9,30.66,23.49,64.2,0,0,0,0,0,0.5,0,0,9999,9999,9,999999999,0,0.0,0,0,0.0,0.0
2026,7,21,15,57,?9?9?9?9E0?9?9?9*9*9?9?9?9?9?9?9*9?9*9*9?9*9,30.66,23.49,64.2,0,0,0,0,0,0.5,0,0,9999,9999,9,999999999,0,0.0,0,0,0.0,0.0
2026,7,21,15,58,?9?9?9?9E0?9?9?9*9*9?9?9?9?9?9?9*9?9*9*9?9*9,30.66,23.49,64.2,0,0,0,0,0,0.5,0,0,9999,9999,9,999999999,0,0.0,0,0,0.0,0.0
2026,7,21,15,59,?9?9?9?9E0?9?9?9*9*9?9?9?9?9?9?9*9?9*9*9?9*9,30.66,23.49,64.2,0,0,0,0,0,0.5,0,0,9999,9999,9,999999999,0,0.0,0,0,0.0,0.0
2026,7,21,15,60,?9?9?9?9E0?9?9?9*9*9?9?9?9?9?9?9*9?9*9*9?9*9,30.66,23.49,64.2,0,0,0,0,0,0.5,0,0,9999,9999,9,999999999,0,0.0,0,0,0.0,0.0
2026,7,21,16,1,?9?9?9?9E0?9?9?9*9*9?9?9?9?9?9?9*9?9*9*9?9*9,30.66,23.49,64.2,0,0,0,0,0,0.5,0,0,9999,9999,9,999999999,0,0.0,0,0,0.0,0.0
2026,7,21,16,2,?9?9?9?9E0?9?9?9*9*9?9?9?9?9?9?9*9?9*9*9?9*9,30.66,23.49,64.2,0,0,0,0,0,0.5,0,0,9999,9999,9,999999999,0,0.0,0,0,0.0,0.0
2026,7,21,16,3,?9?9?9?9E0?9?9?9*9*9?9?9?9?9?9?9*9?9*9*9?9*9,30.66,23.49,64.2,0,0,0,0,0,0.5,0,0,9999,9999,9,999999999,0,0.0,0,0,0.0,0.0
2026,7,21,16,4,?9?9?9?9E0?9?9?9*9*9?9?9?9?9?9?9*9?9*9*9?9*9,30.66,23.49,64.2,0,0,0,0,0,0.5,0,0,9999,9999,9,999999999,0,0.0,0,0,0.0,0.0
2026,7,21,16,5,?9?9?9?9E0?9?9?9*9*9?9?9?9?9?9?9*9?9*9*9?9*9,30.66,23.49,64.2,0,0,0,0,0,0.5,0,0,9999,9999,9,999999999,0,0.0,0,0,0.0,0.0
2026,7,21,16,6,?9?9?9?9E0?9?9?9*9*9?9?9?9?9?9?9*9?9*9*9?9*9,30.66,23.49,64.2,0,0,0,0,0,0.5,0,0,9999,9999,9,999999999,0,0.0,0,0,0.0,0.0
2026,7,21,16,7,?9?9?9?9E0?9?9?9*9*9?9?9?9?9?9?9*9?9*9*9?9*9,30.66,23.49,64.2,0,0,0,0,0,0.5,0,0,9999,9999,9,999999999,0,0.0,0,0,0.0,0.0
2026,7,21,16,8,?9?9?9?9E0?9?9?9*9*9?9?9?9?9?9?9*9?9*9*9?9*9,30.66,23.49,64.2,0,0,0,0,0,0.5,0,0,9999,9999,9,999999999,0,0.0,0,0,0.0,0.0
2026,7,21,16,9,?9?9?9?9E0?9?9?9*9*9?9?9?9?9?9?9*9?9*9*9?9*9,30.66,23.49,64.2,0,0,0,0,0,0.5,0,0,9999,9999,9,999999999,0,0.0,0,0,0.0,0.0
2026,7,21,16,10,?9?9?9?9E0?9?9?9*9*9?9?9?9?9?9?9*9?9*9*9?9*9,30.66,23.49,64.2,0,0,0,0,0,0.5,0,0,9999,9999,9,999999999,0,0.0,0,0,0.0,0.0
2026,7,21,16,11,?9?9?9?9E0?9?9?9*9*9?9?9?9?9?9?9*9?9*9*9?9*9,30.66,23.49,64.2,0,0,0,0,0,0.5,0,0,9999,9999,9,999999999,0,0.0,0,0,0.0,0.0
2026,7,21,16,12,?9?9?9?9E0?9?9?9*9*9?9?9?9?9?9?9*9?9*9*9?9*9,30.66,23.49,64.2,0,0,0,0,0,0.5,0,0,9999,9999,9,999999999,0,0.0,0,0,0.0,0.0
2026,7,21,16,13,?9?9?9?9E0?9?9?9*9*9?9?9?9?9?9?9*9?9*9*9?9*9,30.66,23.49,64.2,0,0,0,0,0,0.5,0,0,9999,9999,9,999999999,0,0.0,0,0,0.0,0.0
2026,7,21,16,14,?9?9?9?9E0?9?9?9*9*9?9?9?9?9?9?9*9?9*9*9?9*9,30.66,23.49,64.2,0,0,0,0,0,0.5,0,0,9999,9999,9,999999999,0,0.0,0,0,0.0,0.0
2026,7,21,16,15,?9?9?9?9E0?9?9?9*9*9?9?9?9?9?9?9*9?9*9*9?9*9,30.66,23.49,64.2,0,0,0,0,0,0.5,0,0,9999,9999,9,999999999,0,0.0,0,0,0.0,0.0
2026,7,21,16,16,?9?9?9?9E0?9?9?9*9*9?9?9?9?9?9?9*9?9*9*9?9*9,30.66,23.49,64.2,0,0,0,0,0,0.5,0,0,9999,9999,9,999999999,0,0.0,0,0,0.0,0.0
2026,7,21,16,17,?9?9?9?9E0?9?9?9*9*9?9?9?9?9?9?9*9?9*9*9?9*9,30.66,23.49,64.2,0,0,0,0,0,0.5,0,0,9999,9999,9,999999999,0,0.0,0,0,0.0,0.0
2026,7,21,16,18,?9?9?9?9E0?9?9?9*9*9?9?9?9?9?9?9*9?9*9*9?9*9,30.66,23.49,64.2,0,0,0,0,0,0.5,0,0,9999,9999,9,999999999,0,0.0,0,0,0.0,0.0
2026,7,21,16,19,?9?9?9?9E0?9?9?9*9*9?9?9?9?9?9?9*9?9*9*9?9*9,30.66,23.49,64.2,0,0,0,0,0,0.5,0,0,9999,9999,9,999999999,0,0.0,0,0,0.0,0.0
2026,7,21,16,20,?9?9?9?9E0?9?9?9*9*9?9?9?9?9?9?9*9?9*9*9?9*9,30.66,23.49,64.2,0,0,0,0,0,0.5,0,0,9999,9999,9,999999999,0,0.0,0,0,0.0,0.0
2026,7,21,16,21,?9?9?9?9E0?9?9?9*9*9?9?9?9?9?9?9*9?9*9*9?9*9,30.66,23.49,64.2,0,0,0,0,0,0.5,0,0,9999,9999,9,999999999,0,0.0,0,0,0.0,0.0
2026,7,21,16,22,?9?9?9?9E0?9?9?9*9*9?9?9?9?9?9?9*9?9*9*9?9*9,30.66,23.49,64.2,0,0,0,0,0,0.5,0,0,9999,9999,9,999999999,0,0.0,0,0,0.0,0.0
2026,7,21,16,23,?9?9?9?9E0?9?9?9*9*9?9?9?9?9?9?9*9?9*9*9?9*9,30.66,23.49,64.2,0,0,0,0,0,0.5,0,0,9999,9999,9,999999999,0,0.0,0,0,0.0,0.0
2026,7,21,16,24,?9?9?9?9E0?9?9?9*9*9?9?9?9?9?9?9*9?9*9*9?9*9,30.66,23.49,64.2,0,0,0,0,0,0.5,0,0,9999,9999,9,999999999,0,0.0,0,0,0.0,0.0
2026,7,21,16,25,?9?9?9?9E0?9?9?9*9*9?9?9?9?9?9?9*9?9*9*9?9*9,30.66,23.49,64.2,0,0,0,0,0,0.5,0,0,9999,9999,9,999999999,0,0.0,0,0,0.0,0.0
2026,7,21,16,26,?9?9?9?9E0?9?9?9*9*9?9?9?9?9?9?9*9?9*9*9?9*9,30.66,23.49,64.2,0,0,0,0,0,0.5,0,0,9999,9999,9,999999999,0,0.0,0,0,0.0,0.0
2026,7,21,16,27,?9?9?9?9E0?9?9?9*9*9?9?9?9?9?9?9*9?9*9*9?9*9,30.66,23.49,64.2,0,0,0,0,0,0.5,0,0,9999,9999,9,999999999,0,0.0,0,0,0.0,0.0
2026,7,21,16,28,?9?9?9?9E0?9?9?9*9*9?9?9?9?9?9?9*9?9*9*9?9*9,30.66,23.49,64.2,0,0,0,0,0,0.5,0,0,9999,9999,9,999999999,0,0.0,0,0,0.0,0.0
2026,7,21,16,29,?9?9?9?9E0?9?9?9*9*9?9?9?9?9?9?9*9?9*9*9?9*9,30.66,23.49,64.2,0,0,0,0,0,0.5,0,0,9999,9999,9,999999999,0,0.0,0,0,0.0,0.0
2026,7,21,16,30,?9?9?9?9E0?9?9?9*9*9?9?9?9?9?9?9*9?9*9*9?9*9,30.66,23.49,64.2,0,0,0,0,0,0.5,0,0,9999,9999,9,999999999,0,0.0,0,0,0.0,0.0
2026,7,21,16,31,?9?9?9?9E0?9?9?9*9*9?9?9?9?9?9?9*9?9*9*9?9*9,30.66,23.49,64.2,0,0,0,0,0,0.5,0,0,9999,9999,9,999999999,0,0.0,0,0,0.0,0.0
2026,7,21,16,32,?9?9?9?9E0?9?9?9*9*9?9?9?9?9?9?9*9?9*9*9?9*9,30.66,23.49,64.2,0,0,0,0,0,0.5,0,0,9999,9999,9,999999999,0,0.0,0,0,0.0,0.0
2026,7,21,16,33,?9?9?9?9E0?9?9?9*9*9?9?9?9?9?9?9*9?9*9*9?9*9,30.66,23.49,64.2,0,0,0,0,0,0.5,0,0,9999,9999,9,999999999,0,0.0,0,0,0.0,0.0
2026,7,21,16,34,?9?9?9?9E0?9?9?9*9*9?9?9?9?9?9?9*9?9*9*9?9*9,30.66,23.49,64.2,0,0,0,0,0,0.5,0,0,9999,9999,9,999999999,0,0.0,0,0,0.0,0.0
2026,7,21,16,35,?9?9?9?9E0?9?9?9*9*9?9?9?9?9?9?9*9?9*9*9?9*9,30.66,23.49,64.2,0,0,0,0,0,0.5,0,0,9999,9999,9,999999999,0,0.0,0,0,0.0,0.0
2026,7,21,16,36,?9?9?9?9E0?9?9?9*9*9?9?9?9?9?9?9*9?9*9*9?9*9,30.66,23.49,64.2,0,0,0,0,0,0.5,0,0,9999,9999,9,999999999,0,0.0,0,0,0.0,0.0
2026,7,21,16,37,?9?9?9?9E0?9?9?9*9*9?9?9?9?9?9?9*9?9*9*9?9*9,30.66,23.49,64.2,0,0,0,0,0,0.5,0,0,9999,9999,9,999999999,0,0.0,0,0,0.0,0.0
2026,7,21,16,38,?9?9?9?9E0?9?9?9*9*9?9?9?9?9?9?9*9?9*9*9?9*9,30.66,23.49,64.2,0,0,0,0,0,0.5,0,0,9999,9999,9,999999999,0,0.0,0,0,0.0,0.0
2026,7,21,16,39,?9?9?9?9E0?9?9?9*9*9?9?9?9?9?9?9*9?9*9*9?9*9,30.66,23.49,64.2,0,0,0,0,0,0.5,0,0,9999,9999,9,999999999,0,0.0,0,0,0.0,0.0
2026,7,21,16,40,?9?9?9?9E0?9?9?9*9*9?9?9?9?9?9?9*9?9*9*9?9*9,30.66,23.49,64.2,0,0,0,0,0,0.5,0,0,9999,9999,9,999999999,0,0.0,0,0,0.0,0.0
2026,7,21,16,41,?9?9?9?9E0?9?9?9*9*9?9?9?9?9?9?9*9?9*9*9?9*9,30.66,23.49,64.2,0,0,0,0,0,0.5,0,0,9999,9999,9,999999999,0,0.0,0,0,0.0,0.0
2026,7,21,16,42,?9?9?9?9E0?9?9?9*9*9?9?9?9?9?9?9*9?9*9*9?9*9,30.66,23.49,64.2,0,0,0,0,0,0.5,0,0,9999,9999,9,999999999,0,0.0,0,0,0.0,0.0
2026,7,21,16,43,?9?9?9?9E0?9?9?9*9*9?9?9?9?9?9?9*9?9*9*9?9*9,30.66,23.49,64.2,0,0,0,0,0,0.5,0,0,9999,9999,9,999999999,0,0.0,0,0,0.0,0.0
2026,7,21,16,44,?9?9?9?9E0?9?9?9*9*9?9?9?9?9?9?9*9?9*9*9?9*9,30.66,23.49,64.2,0,0,0,0,0,0.5,0,0,9999,9999,9,999999999,0,0.0,0,0,0.0,0.0
2026,7,21,16,45,?9?9?9?9E0?9?9?9*9*9?9?9?9?9?9?9*9?9*9*9?9*9,30.66,23.49,64.2,0,0,0,0,0,0.5,0,0,9999,9999,9,999999999,0,0.0,0,0,0.0,0.0
2026,7,21,16,46,?9?9?9?9E0?9?9?9*9*9?9?9?9?9?9?9*9?9*9*9?9*9,30.66,23.49,64.2,0,0,0,0,0,0.5,0,0,9999,9999,9,999999999,0,0.0,0,0,0.0,0.0
2026,7,21,16,47,?9?9?9?9E0?9?9?9*9*9?9?9?9?9?9?9*9?9*9*9?9*9,30.66,23.49,64.2,0,0,0,0,0,0.5,0,0,9999,9999,9,999999999,0,0.0,0,0,0.0,0.0
2026,7,21,16,48,?9?9?9?9E0?9?9?9*9*9?9?9?9?9?9?9*9?9*9*9?9*9,30.66,23.49,64.2,0,0,0,0,0,0.5,0,0,9999,9999,9,999999999,0,0.0,0,0,0.0,0.0
2026,7,21,16,49,?9?9?9?9E0?9?9?9*9*9?9?9?9?9?9?9*9?9*9*9?9*9,30.66,23.49,64.2,0,0,0,0,0,0.5,0,0,9999,9999,9,999999999,0,0.0,0,0,0.0,0.0
2026,7,21,16,50,?9?9?9?9E0?9?9?9*9*9?9?9?9?9?9?9*9?9*9*9?9*9,30.66,23.49,64.2,0,0,0,0,0,0.5,0,0,9999,9999,9,999999999,0,0.0,0,0,0.0,0.0
2026,7,21,16,51,?9?9?9?9E0?9?9?9*9*9?9?9?9?9?9?9*9?9*9*9?9*9,30.66,23.49,64.2,0,0,0,0,0,0.5,0,0,9999,9999,9,999999999,0,0.0,0,0,0.0,0.0
2026,7,21,16,52,?9?9?9?9E0?9?9?9*9*9?9?9?9?9?9?9*9?9*9*9?9*9,30.66,23.49,64.2,0,0,0,0,0,0.5,0,0,9999,9999,9,999999999,0,0.0,0,0,0.0,0.0
2026,7,21,16,53,?9?9?9?9E0?9?9?9*9*9?9?9?9?9?9?9*9?9*9*9?9*9,30.66,23.49,64.2,0,0,0,0,0,0.5,0,0,9999,9999,9,999999999,0,0.0,0,0,0.0,0.0
2026,7,21,16,54,?9?9?9?9E0?9?9?9*9*9?9?9?9?9?9?9*9?9*9*9?9*9,30.66,23.49,64.2,0,0,0,0,0,0.5,0,0,9999,9999,9,999999999,0,0.0,0,0,0.0,0.0
2026,7,21,16,55,?9?9?9?9E0?9?9?9*9*9?9?9?9?9?9?9*9?9*9*9?9*9,30.66,23.49,64.2,0,0,0,0,0,0.5,0,0,9999,9999,9,999999999,0,0.0,0,0,0.0,0.0
2026,7,21,16,56,?9?9?9?9E0?9?9?9*9*9?9?9?9?9?9?9*9?9*9*9?9*9,30.66,23.49,64.2,0,0,0,0,0,0.5,0,0,9999,9999,9,999999999,0,0.0,0,0,0.0,0.0
2026,7,21,16,57,?9?9?9?9E0?9?9?9*9*9?9?9?9?9?9?9*9?9*9*9?9*9,30.66,23.49,64.2,0,0,0,0,0,0.5,0,0,9999,9999,9,999999999,0,0.0,0,0,0.0,0.0
2026,7,21,16,58,?9?9?9?9E0?9?9?9*9*9?9?9?9?9?9?9*9?9*9*9?9*9,30.66,23.49,64.2,0,0,0,0,0,0.5,0,0,9999,9999,9,999999999,0,0.0,0,0,0.0,0.0
2026,7,21,16,59,?9?9?9?9E0?9?9?9*9*9?9?9?9?9?9?9*9?9*9*9?9*9,30.66,23.49,64.2,0,0,0,0,0,0.5,0,0,9999,9999,9,999999999,0,0.0,0,0,0.0,0.0
2026,7,21,16,60,?9?9?9?9E0?9?9?9*9*9?9?9?9?9?9?9*9?9*9*9?9*9,30.66,23.49,64.2,0,0,0,0,0,0.5,0,0,9999,9999,9,999999999,0,0.0,0,0,0.0,0.0
2026,7,21,17,1,?9?9?9?9E0?9?9?9*9*9?9?9?9?9?9?9*9?9*9*9?9*9,30.66,23.49,64.2,0,0,0,0,0,0.5,0,0,9999,9999,9,999999999,0,0.0,0,0,0.0,0.0
2026,7,21,17,2,?9?9?9?9E0?9?9?9*9*9?9?9?9?9?9?9*9?9*9*9?9*9,30.66,23.49,64.2,0,0,0,0,0,0.5,0,0,9999,9999,9,999999999,0,0.0,0,0,0.0,0.0
2026,7,21,17,3,?9?9?9?9E0?9?9?9*9*9?9?9?9?9?9?9*9?9*9*9?9*9,30.66,23.49,64.2,0,0,0,0,0,0.5,0,0,9999,9999,9,999999999,0,0.0,0,0,0.0,0.0
2026,7,21,17,4,?9?9?9?9E0?9?9?9*9*9?9?9?9?9?9?9*9?9*9*9?9*9,30.66,23.49,64.2,0,0,0,0,0,0.5,0,0,9999,9999,9,999999999,0,0.0,0,0,0.0,0.0
2026,7,21,17,5,?9?9?9?9E0?9?9?9*9*9?9?9?9?9?9?9*9?9*9*9?9*9,30.66,23.49,64.2,0,0,0,0,0,0.5,0,0,9999,9999,9,999999999,0,0.0,0,0,0.0,0.0
2026,7,21,17,6,?9?9?9?9E0?9?9?9*9*9?9?9?9?9?9?9*9?9*9*9?9*9,30.66,23.49,64.2,0,0,0,0,0,0.5,0,0,9999,9999,9,999999999,0,0.0,0,0,0.0,0.0
2026,7,21,17,7,?9?9?9?9E0?9?9?9*9*9?9?9?9?9?9?9*9?9*9*9?9*9,30.66,23.49,64.2,0,0,0,0,0,0.5,0,0,9999,9999,9,999999999,0,0.0,0,0,0.0,0.0
2026,7,21,17,8,?9?9?9?9E0?9?9?9*9*9?9?9?9?9?9?9*9?9*9*9?9*9,30.66,23.49,64.2,0,0,0,0,0,0.5,0,0,9999,9999,9,999999999,0,0.0,0,0,0.0,0.0
2026,7,21,17,9,?9?9?9?9E0?9?9?9*9*9?9?9?9?9?9?9*9?9*9*9?9*9,30.66,23.49,64.2,0,0,0,0,0,0.5,0,0,9999,9999,9,999999999,0,0.0,0,0,0.0,0.0
2026,7,21,17,10,?9?9?9?9E0?9?9?9*9*9?9?9?9?9?9?9*9?9*9*9?9*9,30.66,23.49,64.2,0,0,0,0,0,0.5,0,0,9999,9999,9,999999999,0,0.0,0,0,0.0,0.0
2026,7,21,17,11,?9?9?9?9E0?9?9?9*9*9?9?9?9?9?9?9*9?9*9*9?9*9,30.66,23.49,64.2,0,0,0,0,0,0.5,0,0,9999,9999,9,999999999,0,0.0,0,0,0.0,0.0
2026,7,21,17,12,?9?9?9?9E0?9?9?9*9*9?9?9?9?9?9?9*9?9*9*9?9*9,30.66,23.49,64.2,0,0,0,0,0,0.5,0,0,9999,9999,9,999999999,0,0.0,0,0,0.0,0.0
2026,7,21,17,13,?9?9?9?9E0?9?9?9*9*9?9?9?9?9?9?9*9?9*9*9?9*9,30.66,23.49,64.2,0,0,0,0,0,0.5,0,0,9999,9999,9,999999999,0,0.0,0,0,0.0,0.0
2026,7,21,17,14,?9?9?9?9E0?9?9?9*9*9?9?9?9?9?9?9*9?9*9*9?9*9,30.66,23.49,64.2,0,0,0,0,0,0.5,0,0,9999,9999,9,999999999,0,0.0,0,0,0.0,0.0
2026,7,21,17,15,?9?9?9?9E0?9?9?9*9*9?9?9?9?9?9?9*9?9*9*9?9*9,30.66,23.49,64.2,0,0,0,0,0,0.5,0,0,9999,9999,9,999999999,0,0.0,0,0,0.0,0.0
2026,7,21,17,16,?9?9?9?9E0?9?9?9*9*9?9?9?9?9?9?9*9?9*9*9?9*9,30.66,23.49,64.2,0,0,0,0,0,0.5,0,0,9999,9999,9,999999999,0,0.0,0,0,0.0,0.0
2026,7,21,17,17,?9?9?9?9E0?9?9?9*9*9?9?9?9?9?9?9*9?9*9*9?9*9,30.66,23.49,64.2,0,0,0,0,0,0.5,0,0,9999,9999,9,999999999,0,0.0,0,0,0.0,0.0
2026,7,21,17,18,?9?9?9?9E0?9?9?9*9*9?9?9?9?9?9?9*9?9*9*9?9*9,30.66,23.49,64.2,0,0,0,0,0,0.5,0,0,9999,9999,9,999999999,0,0.0,0,0,0.0,0.0
2026,7,21,17,19,?9?9?9?9E0?9?9?9*9*9?9?9?9?9?9?9*9?9*9*9?9*9,30.66,23.49,64.2,0,0,0,0,0,0.5,0,0,9999,9999,9,999999999,0,0.0,0,0,0.0,0.0
2026,7,21,17,20,?9?9?9?9E0?9?9?9*9*9?9?9?9?9?9?9*9?9*9*9?9*9,30.66,23.49,64.2,0,0,0,0,0,0.5,0,0,9999,9999,9,999999999,0,0.0,0,0,0.0,0.0
2026,7,21,17,21,?9?9?9?9E0?9?9?9*9*9?9?9?9?9?9?9*9?9*9*9?9*9,30.66,23.49,64.2,0,0,0,0,0,0.5,0,0,9999,9999,9,999999999,0,0.0,0,0,0.0,0.0
2026,7,21,17,22,?9?9?9?9E0?9?9?9*9*9?9?9?9?9?9?9*9?9*9*9?9*9,30.66,23.49,64.2,0,0,0,0,0,0.5,0,0,9999,9999,9,999999999,0,0.0,0,0,0.0,0.0
2026,7,21,17,23,?9?9?9?9E0?9?9?9*9*9?9?9?9?9?9?9*9?9*9*9?9*9,30.66,23.49,64.2,0,0,0,0,0,0.5,0,0,9999,9999,9,999999999,0,0.0,0,0,0.0,0.0
2026,7,21,17,24,?9?9?9?9E0?9?9?9*9*9?9?9?9?9?9?9*9?9*9*9?9*9,30.66,23.49,64.2,0,0,0,0,0,0.5,0,0,9999,9999,9,999999999,0,0.0,0,0,0.0,0.0
2026,7,21,17,25,?9?9?9?9E0?9?9?9*9*9?9?9?9?9?9?9*9?9*9*9?9*9,30.66,23.49,64.2,0,0,0,0,0,0.5,0,0,9999,9999,9,999999999,0,0.0,0,0,0.0,0.0
2026,7,21,17,26,?9?9?9?9E0?9?9?9*9*9?9?9?9?9?9?9*9?9*9*9?9*9,30.66,23.49,64.2,0,0,0,0,0,0.5,0,0,9999,9999,9,999999999,0,0.0,0,0,0.0,0.0
2026,7,21,17,27,?9?9?9?9E0?9?9?9*9*9?9?9?9?9?9?9*9?9*9*9?9*9,30.66,23.49,64.2,0,0,0,0,0,0.5,0,0,9999,9999,9,999999999,0,0.0,0,0,0.0,0.0
2026,7,21,17,28,?9?9?9?9E0?9?9?9*9*9?9?9?9?9?9?9*9?9*9*9?9*9,30.66,23.49,64.2,0,0,0,0,0,0.5,0,0,9999,9999,9,999999999,0,0.0,0,0,0.0,0.0
2026,7,21,17,29,?9?9?9?9E0?9?9?9*9*9?9?9?9?9?9?9*9?9*9*9?9*9,30.66,23.49,64.2,0,0,0,0,0,0.5,0,0,9999,9999,9,999999999,0,0.0,0,0,0.0,0.0
2026,7,21,17,30,?9?9?9?9E0?9?9?9*9*9?9?9?9?9?9?9*9?9*9*9?9*9,30.66,23.49,64.2,0,0,0,0,0,0.5,0,0,9999,9999,9,999999999,0,0.0,0,0,0.0,0.0
2026,7,21,17,31,?9?9?9?9E0?9?9?9*9*9?9?9?9?9?9?9*9?9*9*9?9*9,30.66,23.49,64.2,0,0,0,0,0,0.5,0,0,9999,9999,9,999999999,0,0.0,0,0,0.0,0.0
2026,7,21,17,32,?9?9?9?9E0?9?9?9*9*9?9?9?9?9?9?9*9?9*9*9?9*9,30.66,23.49,64.2,0,0,0,0,0,0.5,0,0,9999,9999,9,999999999,0,0.0,0,0,0.0,0.0
2026,7,21,17,33,?9?9?9?9E0?9?9?9*9*9?9?9?9?9?9?9*9?9*9*9?9*9,30.66,23.49,64.2,0,0,0,0,0,0.5,0,0,9999,9999,9,999999999,0,0.0,0,0,0.0,0.0
2026,7,21,17,34,?9?9?9?9E0?9?9?9*9*9?9?9?9?9?9?9*9?9*9*9?9*9,30.66,23.49,64.2,0,0,0,0,0,0.5,0,0,9999,9999,9,999999999,0,0.0,0,0,0.0,0.0
2026,7,21,17,35,?9?9?9?9E0?9?9?9*9*9?9?9?9?9?9?9*9?9*9*9?9*9,30.66,23.49,64.2,0,0,0,0,0,0.5,0,0,9999,9999,9,999999999,0,0.0,0,0,0.0,0.0
2026,7,21,17,36,?9?9?9?9E0?9?9?9*9*9?9?9?9?9?9?9*9?9*9*9?9*9,30.66,23.49,64.2,0,0,0,0,0,0.5,0,0,9999,9999,9,999999999,0,0.0,0,0,0.0,0.0
2026,7,21,17,37,?9?9?9?9E0?9?9?9*9*9?9?9?9?9?9?9*9?9*9*9?9*9,30.66,23.49,64.2,0,0,0,0,0,0.5,0,0,9999,9999,9,999999999,0,0.0,0,0,0.0,0.0
2026,7,21,17,38,?9?9?9?9E0?9?9?9*9*9?9?9?9?9?9?9*9?9*9*9?9*9,30.66,23.49,64.2,0,0,0,0,0,0.5,0,0,9999,9999,9,999999999,0,0.0,0,0,0.0,0.0
2026,7,21,17,39,?9?9?9?9E0?9?9?9*9*9?9?9?9?9?9?9*9?9*9*9?9*9,30.66,23.49,64.2,0,0,0,0,0,0.5,0,0,9999,9999,9,999999999,0,0.0,0,0,0.0,0.0
2026,7,21,17,40,?9?9?9?9E0?9?9?9*9*9?9?9?9?9?9?9*9?9*9*9?9*9,30.66,23.49,64.2,0,0,0,0,0,0.5,0,0,9999,9999,9,999999999,0,0.0,0,0,0.0,0.0
2026,7,21,17,41,?9?9?9?9E0?9?9?9*9*9?9?9?9?9?9?9*9?9*9*9?9*9,30.66,23.49,64.2,0,0,0,0,0,0.5,0,0,9999,9999,9,999999999,0,0.0,0,0,0.0,0.0
2026,7,21,17,42,?9?9?9?9E0?9?9?9*9*9?9?9?9?9?9?9*9?9*9*9?9*9,30.66,23.49,64.2,0,0,0,0,0,0.5,0,0,9999,9999,9,999999999,0,0.0,0,0,0.0,0.0
2026,7,21,17,43,?9?9?9?9E0?9?9?9*9*9?9?9?9?9?9?9*9?9*9*9?9*9,30.66,23.49,64.2,0,0,0,0,0,0.5,0,0,9999,9999,9,999999999,0,0.0,0,0,0.0,0.0
2026,7,21,17,44,?9?9?9?9E0?9?9?9*9*9?9?9?9?9?9?9*9?9*9*9?9*9,30.66,23.49,64.2,0,0,0,0,0,0.5,0,0,9999,9999,9,999999999,0,0.0,0,0,0.0,0.0
2026,7,21,17,45,?9?9?9?9E0?9?9?9*9*9?9?9?9?9?9?9*9?9*9*9?9*9,30.66,23.49,64.2,0,0,0,0,0,0.5,0,0,9999,9999,9,999999999,0,0.0,0,0,0.0,0.0
2026,7,21,17,46,?9?9?9?9E0?9?9?9*9*9?9?9?9?9?9?9*9?9*9*9?9*9,30.66,23.49,64.2,0,0,0,0,0,0.5,0,0,9999,9999,9,999999999,0,0.0,0,0,0.0,0.0
2026,7,21,17,47,?9?9?9?9E0?9?9?9*9*9?9?9?9?9?9?9*9?9*9*9?9*9,30.66,23.49,64.2,0,0,0,0,0,0.5,0,0,9999,9999,9,999999999,0,0.0,0,0,0.0,0.0
2026,7,21,17,48,?9?9?9?9E0?9?9?9*9*9?9?9?9?9?9?9*9?9*9*9?9*9,30.66,23.49,64.2,0,0,0,0,0,0.5,0,0,9999,9999,9,999999999,0,0.0,0,0,0.0,0.0
2026,7,21,17,49,?9?9?9?9E0?9?9?9*9*9?9?9?9?9?9?9*9?9*9*9?9*9,30.66,23.49,64.2,0,0,0,0,0,0.5,0,0,9999,9999,9,999999999,0,0.0,0,0,0.0,0.0
2026,7,21,17,50,?9?9?9?9E0?9?9?9*9*9?9?9?9?9?9?9*9?9*9*9?9*9,30.66,23.49,64.2,0,0,0,0,0,0.5,0,0,9999,9999,9,999999999,0,0.0,0,0,0.0,0.0
2026,7,21,17,51,?9?9?9?9E0?9?9?9*9*9?9?9?9?9?9?9*9?9*9*9?9*9,30.66,23.49,64.2,0,0,0,0,0,0.5,0,0,9999,9999,9,999999999,0,0.0,0,0,0.0,0.0
2026,7,21,17,52,?9?9?9?9E0?9?9?9*9*9?9?9?9?9?9?9*9?9*9*9?9*9,30.66,23.49,64.2,0,0,0,0,0,0.5,0,0,9999,9999,9,999999999,0,0.0,0,0,0.0,0.0
2026,7,21,17,53,?9?9?9?9E0?9?9?9*9*9?9?9?9?9?9?9*9?9*9*9?9*9,30.66,23.49,64.2,0,0,0,0,0,0.5,0,0,9999,9999,9,999999999,0,0.0,0,0,0.0,0.0
2026,7,21,17,54,?9?9?9?9E0?9?9?9*9*9?9?9?9?9?9?9*9?9*9*9?9*9,30.66,23.49,64.2,0,0,0,0,0,0.5,0,0,9999,9999,9,999999999,0,0.0,0,0,0.0,0.0
2026,7,21,17,55,?9?9?9?9E0?9?9?9*9*9?9?9?9?9?9?9*9?9*9*9?9*9,30.66,23.49,64.2,0,0,0,0,0,0.5,0,0,9999,9999,9,999999999,0,0.0,0,0,0.0,0.0
2026,7,21,17,56,?9?9?9?9E0?9?9?9*9*9?9?9?9?9?9?9*9?9*9*9?9*9,30.66,23.49,64.2,0,0,0,0,0,0.5,0,0,9999,9999,9,999999999,0,0.0,0,0,0.0,0.0
2026,7,21,17,57,?9?9?9?9E0?9?9?9*9*9?9?9?9?9?9?9*9?9*9*9?9*9,30.66,23.49,64.2,0,0,0,0,0,0.5,0,0,9999,9999,9,999999999,0,0.0,0,0,0.0,0.0
2026,7,21,17,58,?9?9?9?9E0?9?9?9*9*9?9?9?9?9?9?9*9?9*9*9?9*9,30.66,23.49,64.2,0,0,0,0,0,0.5,0,0,9999,9999,9,999999999,0,0.0,0,0,0.0,0.0
2026,7,21,17,59,?9?9?9?9E0?9?9?9*9*9?9?9?9?9?9?9*9?9*9*9?9*9,30.66,23.49,64.2,0,0,0,0,0,0.5,0,0,9999,9999,9,999999999,0,0.0,0,0,0.0,0.0
2026,7,21,17,60,?9?9?9?9E0?9?9?9*9*9?9?9?9?9?9?9*9?9*9*9?9*9,30.66,23.49,64.2,0,0,0,0,0,0.5,0,0,9999,9999,9,999999999,0,0.0,0,0,0.0,0.0
2026,7,21,18,1,?9?9?9?9E0?9?9?9*9*9?9?9?9?9?9?9*9?9*9*9?9*9,30.66,23.49,64.2,0,0,0,0,0,0.5,0,0,9999,9999,9,999999999,0,0.0,0,0,0.0,0.0
2026,7,21,18,2,?9?9?9?9E0?9?9?9*9*9?9?9?9?9?9?9*9?9*9*9?9*9,30.66,23.49,64.2,0,0,0,0,0,0.5,0,0,9999,9999,9,999999999,0,0.0,0,0,0.0,0.0
2026,7,21,18,3,?9?9?9?9E0?9?9?9*9*9?9?9?9?9?9?9*9?9*9*9?9*9,30.66,23.49,64.2,0,0,0,0,0,0.5,0,0,9999,9999,9,999999999,0,0.0,0,0,0.0,0.0
2026,7,21,18,4,?9?9?9?9E0?9?9?9*9*9?9?9?9?9?9?9*9?9*9*9?9*9,30.66,23.49,64.2,0,0,0,0,0,0.5,0,0,9999,9999,9,999999999,0,0.0,0,0,0.0,0.0
2026,7,21,18,5,?9?9?9?9E0?9?9?9*9*9?9?9?9?9?9?9*9?9*9*9?9*9,30.66,23.49,64.2,0,0,0,0,0,0.5,0,0,9999,9999,9,999999999,0,0.0,0,0,0.0,0.0
2026,7,21,18,6,?9?9?9?9E0?9?9?9*9*9?9?9?9?9?9?9*9?9*9*9?9*9,30.66,23.49,64.2,0,0,0,0,0,0.5,0,0,9999,9999,9,999999999,0,0.0,0,0,0.0,0.0
2026,7,21,18,7,?9?9?9?9E0?9?9?9*9*9?9?9?9?9?9?9*9?9*9*9?9*9,30.66,23.49,64.2,0,0,0,0,0,0.5,0,0,9999,9999,9,999999999,0,0.0,0,0,0.0,0.0
2026,7,21,18,8,?9?9?9?9E0?9?9?9*9*9?9?9?9?9?9?9*9?9*9*9?9*9,30.66,23.49,64.2,0,0,0,0,0,0.5,0,0,9999,9999,9,999999999,0,0.0,0,0,0.0,0.0
2026,7,21,18,9,?9?9?9?9E0?9?9?9*9*9?9?9?9?9?9?9*9?9*9*9?9*9,30.66,23.49,64.2,0,0,0,0,0,0.5,0,0,9999,9999,9,999999999,0,0.0,0,0,0.0,0.0
2026,7,21,18,10,?9?9?9?9E0?9?9?9*9*9?9?9?9?9?9?9*9?9*9*9?9*9,30.66,23.49,64.2,0,0,0,0,0,0.5,0,0,9999,9999,9,999999999,0,0.0,0,0,0.0,0.0
2026,7,21,18,11,?9?9?9?9E0?9?9?9*9*9?9?9?9?9?9?9*9?9*9*9?9*9,30.66,23.49,64.2,0,0,0,0,0,0.5,0,0,9999,9999,9,999999999,0,0.0,0,0,0.0,0.0
2026,7,21,18,12,?9?9?9?9E0?9?9?9*9*9?9?9?9?9?9?9*9?9*9*9?9*9,30.66,23.49,64.2,0,0,0,0,0,0.5,0,0,9999,9999,9,999999999,0,0.0,0,0,0.0,0.0
2026,7,21,18,13,?9?9?9?9E0?9?9?9*9*9?9?9?9?9?9?9*9?9*9*9?9*9,30.66,23.49,64.2,0,0,0,0,0,0.5,0,0,9999,9999,9,999999999,0,0.0,0,0,0.0,0.0
2026,7,21,18,14,?9?9?9?9E0?9?9?9*9*9?9?9?9?9?9?9*9?9*9*9?9*9,30.66,23.49,64.2,0,0,0,0,0,0.5,0,0,9999,9999,9,999999999,0,0.0,0,0,0.0,0.0
2026,7,21,18,15,?9?9?9?9E0?9?9?9*9*9?9?9?9?9?9?9*9?9*9*9?9*9,30.66,23.49,64.2,0,0,0,0,0,0.5,0,0,9999,9999,9,999999999,0,0.0,0,0,0.0,0.0
2026,7,21,18,16,?9?9?9?9E0?9?9?9*9*9?9?9?9?9?9?9*9?9*9*9?9*9,30.66,23.49,64.2,0,0,0,0,0,0.5,0,0,9999,9999,9,999999999,0,0.0,0,0,0.0,0.0
2026,7,21,18,17,?9?9?9?9E0?9?9?9*9*9?9?9?9?9?9?9*9?9*9*9?9*9,30.66,23.49,64.2,0,0,0,0,0,0.5,0,0,9999,9999,9,999999999,0,0.0,0,0,0.0,0.0
2026,7,21,18,18,?9?9?9?9E0?9?9?9*9*9?9?9?9?9?9?9*9?9*9*9?9*9,30.66,23.49,64.2,0,0,0,0,0,0.5,0,0,9999,9999,9,999999999,0,0.0,0,0,0.0,0.0
2026,7,21,18,19,?9?9?9?9E0?9?9?9*9*9?9?9?9?9?9?9*9?9*9*9?9*9,30.66,23.49,64.2,0,0,0,0,0,0.5,0,0,9999,9999,9,999999999,0,0.0,0,0,0.0,0.0
2026,7,21,18,20,?9?9?9?9E0?9?9?9*9*9?9?9?9?9?9?9*9?9*9*9?9*9,30.66,23.49,64.2,0,0,0,0,0,0.5,0,0,9999,9999,9,999999999,0,0.0,0,0,0.0,0.0
2026,7,21,18,21,?9?9?9?9E0?9?9?9*9*9?9?9?9?9?9?9*9?9*9*9?9*9,30.66,23.49,64.2,0,0,0,0,0,0.5,0,0,9999,9999,9,999999999,0,0.0,0,0,0.0,0.0
2026,7,21,18,22,?9?9?9?9E0?9?9?9*9*9?9?9?9?9?9?9*9?9*9*9?9*9,30.66,23.49,64.2,0,0,0,0,0,0.5,0,0,9999,9999,9,999999999,0,0.0,0,0,0.0,0.0
2026,7,21,18,23,?9?9?9?9E0?9?9?9*9*9?9?9?9?9?9?9*9?9*9*9?9*9,30.66,23.49,64.2,0,0,0,0,0,0.5,0,0,9999,9999,9,999999999,0,0.0,0,0,0.0,0.0
2026,7,21,18,24,?9?9?9?9E0?9?9?9*9*9?9?9?9?9?9?9*9?9*9*9?9*9,30.66,23.49,64.2,0,0,0,0,0,0.5,0,0,9999,9999,9,999999999,0,0.0,0,0,0.0,0.0
2026,7,21,18,25,?9?9?9?9E0?9?9?9*9*9?9?9?9?9?9?9*9?9*9*9?9*9,30.66,23.49,64.2,0,0,0,0,0,0.5,0,0,9999,9999,9,999999999,0,0.0,0,0,0.0,0.0
2026,7,21,18,26,?9?9?9?9E0?9?9?9*9*9?9?9?9?9?9?9*9?9*9*9?9*9,30.66,23.49,64.2,0,0,0,0,0,0.5,0,0,9999,9999,9,999999999,0,0.0,0,0,0.0,0.0
2026,7,21,18,27,?9?9?9?9E0?9?9?9*9*9?9?9?9?9?9?9*9?9*9*9?9*9,30.66,23.49,64.2,0,0,0,0,0,0.5,0,0,9999,9999,9,999999999,0,0.0,0,0,0.0,0.0
2026,7,21,18,28,?9?9?9?9E0?9?9?9*9*9?9?9?9?9?9?9*9?9*9*9?9*9,30.66,23.49,64.2,0,0,0,0,0,0.5,0,0,9999,9999,9,999999999,0,0.0,0,0,0.0,0.0
2026,7,21,18,29,?9?9?9?9E0?9?9?9*9*9?9?9?9?9?9?9*9?9*9*9?9*9,30.66,23.49,64.2,0,0,0,0,0,0.5,0,0,9999,9999,9,999999999,0,0.0,0,0,0.0,0.0
2026,7,21,18,30,?9?9?9?9E0?9?9?9*9*9?9?9?9?9?9?9*9?9*9*9?9*9,30.66,23.49,64.2,0,0,0,0,0,0.5,0,0,9999,9999,9,999999999,0,0.0,0,0,0.0,0.0
2026,7,21,18,31,?9?9?9?9E0?9?9?9*9*9?9?9?9?9?9?9*9?9*9*9?9*9,30.66,23.49,64.2,0,0,0,0,0,0.5,0,0,9999,9999,9,999999999,0,0.0,0,0,0.0,0.0
2026,7,21,18,32,?9?9?9?9E0?9?9?9*9*9?9?9?9?9?9?9*9?9*9*9?9*9,30.66,23.49,64.2,0,0,0,0,0,0.5,0,0,9999,9999,9,999999999,0,0.0,0,0,0.0,0.0
2026,7,21,18,33,?9?9?9?9E0?9?9?9*9*9?9?9?9?9?9?9*9?9*9*9?9*9,30.66,23.49,64.2,0,0,0,0,0,0.5,0,0,9999,9999,9,999999999,0,0.0,0,0,0.0,0.0
2026,7,21,18,34,?9?9?9?9E0?9?9?9*9*9?9?9?9?9?9?9*9?9*9*9?9*9,30.66,23.49,64.2,0,0,0,0,0,0.5,0,0,9999,9999,9,999999999,0,0.0,0,0,0.0,0.0
2026,7,21,18,35,?9?9?9?9E0?9?9?9*9*9?9?9?9?9?9?9*9?9*9*9?9*9,30.66,23.49,64.2,0,0,0,0,0,0.5,0,0,9999,9999,9,999999999,0,0.0,0,0,0.0,0.0
2026,7,21,18,36,?9?9?9?9E0?9?9?9*9*9?9?9?9?9?9?9*9?9*9*9?9*9,30.66,23.49,64.2,0,0,0,0,0,0.5,0,0,9999,9999,9,999999999,0,0.0,0,0,0.0,0.0
2026,7,21,18,37,?9?9?9?9E0?9?9?9*9*9?9?9?9?9?9?9*9?9*9*9?9*9,30.66,23.49,64.2,0,0,0,0,0,0.5,0,0,9999,9999,9,999999999,0,0.0,0,0,0.0,0.0
2026,7,21,18,38,?9?9?9?9E0?9?9?9*9*9?9?9?9?9?9?9*9?9*9*9?9*9,30.66,23.49,64.2,0,0,0,0,0,0.5,0,0,9999,9999,9,999999999,0,0.0,0,0,0.0,0.0
2026,7,21,18,39,?9?9?9?9E0?9?9?9*9*9?9?9?9?9?9?9*9?9*9*9?9*9,30.66,23.49,64.2,0,0,0,0,0,0.5,0,0,9999,9999,9,999999999,0,0.0,0,0,0.0,0.0
2026,7,21,18,40,?9?9?9?9E0?9?9?9*9*9?9?9?9?9?9?9*9?9*9*9?9*9,30.66,23.49,64.2,0,0,0,0,0,0.5,0,0,9999,9999,9,999999999,0,0.0,0,0,0.0,0.0
2026,7,21,18,41,?9?9?9?9E0?9?9?9*9*9?9?9?9?9?9?9*9?9*9*9?9*9,30.66,23.49,64.2,0,0,0,0,0,0.5,0,0,9999,9999,9,999999999,0,0.0,0,0,0.0,0.0
2026,7,21,18,42,?9?9?9?9E0?9?9?9*9*9?9?9?9?9?9?9*9?9*9*9?9*9,30.66,23.49,64.2,0,0,0,0,0,0.5,0,0,9999,9999,9,999999999,0,0.0,0,0,0.0,0.0
2026,7,21,18,43,?9?9?9?9E0?9?9?9*9*9?9?9?9?9?9?9*9?9*9*9?9*9,30.66,23.49,64.2,0,0,0,0,0,0.5,0,0,9999,9999,9,999999999,0,0.0,0,0,0.0,0.0
2026,7,21,18,44,?9?9?9?9E0?9?9?9*9*9?9?9?9?9?9?9*9?9*9*9?9*9,30.66,23.49,64.2,0,0,0,0,0,0.5,0,0,9999,9999,9,999999999,0,0.0,0,0,0.0,0.0
2026,7,21,18,45,?9?9?9?9E0?9?9?9*9*9?9?9?9?9?9?9*9?9*9*9?9*9,30.66,23.49,64.2,0,0,0,0,0,0.5,0,0,9999,9999,9,999999999,0,0.0,0,0,0.0,0.0
2026,7,21,18,46,?9?9?9?9E0?9?9?9*9*9?9?9?9?9?9?9*9?9*9*9?9*9,30.66,23.49,64.2,0,0,0,0,0,0.5,0,0,9999,9999,9,999999999,0,0.0,0,0,0.0,0.0
2026,7,21,18,47,?9?9?9?9E0?9?9?9*9*9?9?9?9?9?9?9*9?9*9*9?9*9,30.66,23.49,64.2,0,0,0,0,0,0.5,0,0,9999,9999,9,999999999,0,0.0,0,0,0.0,0.0
2026,7,21,18,48,?9?9?9?9E0?9?9?9*9*9?9?9?9?9?9?9*9?9*9*9?9*9,30.66,23.49,64.2,0,0,0,0,0,0.5,0,0,9999,9999,9,999999999,0,0.0,0,0,0.0,0.0
2026,7,21,18,49,?9?9?9?9E0?9?9?9*9*9?9?9?9?9?9?9*9?9*9*9?9*9,30.66,23.49,64.2,0,0,0,0,0,0.5,0,0,9999,9999,9,999999999,0,0.0,0,0,0.0,0.0
2026,7,21,18,50,?9?9?9?9E0?9?9?9*9*9?9?9?9?9?9?9*9?9*9*9?9*9,30.66,23.49,64.2,0,0,0,0,0,0.5,0,0,9999,9999,9,999999999,0,0.0,0,0,0.0,0.0
2026,7,21,18,51,?9?9?9?9E0?9?9?9*9*9?9?9?9?9?9?9*9?9*9*9?9*9,30.66,23.49,64.2,0,0,0,0,0,0.5,0,0,9999,9999,9,999999999,0,0.0,0,0,0.0,0.0
2026,7,21,18,52,?9?9?9?9E0?9?9?9*9*9?9?9?9?9?9?9*9?9*9*9?9*9,30.66,23.49,64.2,0,0,0,0,0,0.5,0,0,9999,9999,9,999999999,0,0.0,0,0,0.0,0.0
2026,7,21,18,53,?9?9?9?9E0?9?9?9*9*9?9?9?9?9?9?9*9?9*9*9?9*9,30.66,23.49,64.2,0,0,0,0,0,0.5,0,0,9999,9999,9,999999999,0,0.0,0,0,0.0,0.0
2026,7,21,18,54,?9?9?9?9E0?9?9?9*9*9?9?9?9?9?9?9*9?9*9*9?9*9,30.66,23.49,64.2,0,0,0,0,0,0.5,0,0,9999,9999,9,999999999,0,0.0,0,0,0.0,0.0
2026,7,21,18,55,?9?9?9?9E0?9?9?9*9*9?9?9?9?9?9?9*9?9*9*9?9*9,30.66,23.49,64.2,0,0,0,0,0,0.5,0,0,9999,9999,9,999999999,0,0.0,0,0,0.0,0.0
2026,7,21,18,56,?9?9?9?9E0?9?9?9*9*9?9?9?9?9?9?9*9?9*9*9?9*9,30.66,23.49,64.2,0,0,0,0,0,0.5,0,0,9999,9999,9,999999999,0,0.0,0,0,0.0,0.0
2026,7,21,18,57,?9?9?9?9E0?9?9?9*9*9?9?9?9?9?9?9*9?9*9*9?9*9,30.66,23.49,64.2,0,0,0,0,0,0.5,0,0,9999,9999,9,999999999,0,0.0,0,0,0.0,0.0
2026,7,21,18,58,?9?9?9?9E0?9?9?9*9*9?9?9?9?9?9?9*9?9*9*9?9*9,30.66,23.49,64.2,0,0,0,0,0,0.5,0,0,9999,9999,9,999999999,0,0.0,0,0,0.0,0.0
2026,7,21,18,59,?9?9?9?9E0?9?9?9*9*9?9?9?9?9?9?9*9?9*9*9?9*9,30.66,23.49,64.2,0,0,0,0,0,0.5,0,0,9999,9999,9,999999999,0,0.0,0,0,0.0,0.0
2026,7,21,18,60,?9?9?9?9E0?9?9?9*9*9?9?9?9?9?9?9*9?9*9*9?9*9,30.66,23.49,64.2,0,0,0,0,0,0.5,0,0,9999,9999,9,999999999,0,0.0,0,0,0.0,0.0
2026,7,21,19,1,?9?9?9?9E0?9?9?9*9*9?9?9?9?9?9?9*9?9*9*9?9*9,30.66,23.49,64.2,0,0,0,0,0,0.5,0,0,9999,9999,9,999999999,0,0.0,0,0,0.0,0.0
2026,7,21,19,2,?9?9?9?9E0?9?9?9*9*9?9?9?9?9?9?9*9?9*9*9?9*9,30.66,23.49,64.2,0,0,0,0,0,0.5,0,0,9999,9999,9,999999999,0,0.0,0,0,0.0,0.0
2026,7,21,19,3,?9?9?9?9E0?9?9?9*9*9?9?9?9?9?9?9*9?9*9*9?9*9,30.66,23.49,64.2,0,0,0,0,0,0.5,0,0,9999,9999,9,999999999,0,0.0,0,0,0.0,0.0
2026,7,21,19,4,?9?9?9?9E0?9?9?9*9*9?9?9?9?9?9?9*9?9*9*9?9*9,30.66,23.49,64.2,0,0,0,0,0,0.5,0,0,9999,9999,9,999999999,0,0.0,0,0,0.0,0.0
2026,7,21,19,5,?9?9?9?9E0?9?9?9*9*9?9?9?9?9?9?9*9?9*9*9?9*9,30.66,23.49,64.2,0,0,0,0,0,0.5,0,0,9999,9999,9,999999999,0,0.0,0,0,0.0,0.0
2026,7,21,19,6,?9?9?9?9E0?9?9?9*9*9?9?9?9?9?9?9*9?9*9*9?9*9,30.66,23.49,64.2,0,0,0,0,0,0.5,0,0,9999,9999,9,999999999,0,0.0,0,0,0.0,0.0
2026,7,21,19,7,?9?9?9?9E0?9?9?9*9*9?9?9?9?9?9?9*9?9*9*9?9*9,30.66,23.49,64.2,0,0,0,0,0,0.5,0,0,9999,9999,9,999999999,0,0.0,0,0,0.0,0.0
2026,7,21,19,8,?9?9?9?9E0?9?9?9*9*9?9?9?9?9?9?9*9?9*9*9?9*9,30.66,23.49,64.2,0,0,0,0,0,0.5,0,0,9999,9999,9,999999999,0,0.0,0,0,0.0,0.0
2026,7,21,19,9,?9?9?9?9E0?9?9?9*9*9?9?9?9?9?9?9*9?9*9*9?9*9,30.66,23.49,64.2,0,0,0,0,0,0.5,0,0,9999,9999,9,999999999,0,0.0,0,0,0.0,0.0
2026,7,21,19,10,?9?9?9?9E0?9?9?9*9*9?9?9?9?9?9?9*9?9*9*9?9*9,30.66,23.49,64.2,0,0,0,0,0,0.5,0,0,9999,9999,9,999999999,0,0.0,0,0,0.0,0.0
2026,7,21,19,11,?9?9?9?9E0?9?9?9*9*9?9?9?9?9?9?9*9?9*9*9?9*9,30.66,23.49,64.2,0,0,0,0,0,0.5,0,0,9999,9999,9,999999999,0,0.0,0,0,0.0,0.0
2026,7,21,19,12,?9?9?9?9E0?9?9?9*9*9?9?9?9?9?9?9*9?9*9*9?9*9,30.66,23.49,64.2,0,0,0,0,0,0.5,0,0,9999,9999,9,999999999,0,0.0,0,0,0.0,0.0
2026,7,21,19,13,?9?9?9?9E0?9?9?9*9*9?9?9?9?9?9?9*9?9*9*9?9*9,30.66,23.49,64.2,0,0,0,0,0,0.5,0,0,9999,9999,9,999999999,0,0.0,0,0,0.0,0.0
2026,7,21,19,14,?9?9?9?9E0?9?9?9*9*9?9?9?9?9?9?9*9?9*9*9?9*9,30.66,23.49,64.2,0,0,0,0,0,0.5,0,0,9999,9999,9,999999999,0,0.0,0,0,0.0,0.0
2026,7,21,19,15,?9?9?9?9E0?9?9?9*9*9?9?9?9?9?9?9*9?9*9*9?9*9,30.66,23.49,64.2,0,0,0,0,0,0.5,0,0,9999,9999,9,999999999,0,0.0,0,0,0.0,0.0
2026,7,21,19,16,?9?9?9?9E0?9?9?9*9*9?9?9?9?9?9?9*9?9*9*9?9*9,30.66,23.49,64.2,0,0,0,0,0,0.5,0,0,9999,9999,9,999999999,0,0.0,0,0,0.0,0.0
2026,7,21,19,17,?9?9?9?9E0?9?9?9*9*9?9?9?9?9?9?9*9?9*9*9?9*9,30.66,23.49,64.2,0,0,0,0,0,0.5,0,0,9999,9999,9,999999999,0,0.0,0,0,0.0,0.0
2026,7,21,19,18,?9?9?9?9E0?9?9?9*9*9?9?9?9?9?9?9*9?9*9*9?9*9,30.66,23.49,64.2,0,0,0,0,0,0.5,0,0,9999,9999,9,999999999,0,0.0,0,0,0.0,0.0
2026,7,21,19,19,?9?9?9?9E0?9?9?9*9*9?9?9?9?9?9?9*9?9*9*9?9*9,30.66,23.49,64.2,0,0,0,0,0,0.5,0,0,9999,9999,9,999999999,0,0.0,0,0,0.0,0.0
2026,7,21,19,20,?9?9?9?9E0?9?9?9*9*9?9?9?9?9?9?9*9?9*9*9?9*9,30.66,23.49,64.2,0,0,0,0,0,0.5,0,0,9999,9999,9,999999999,0,0.0,0,0,0.0,0.0
2026,7,21,19,21,?9?9?9?9E0?9?9?9*9*9?9?9?9?9?9?9*9?9*9*9?9*9,30.66,23.49,64.2,0,0,0,0,0,0.5,0,0,9999,9999,9,999999999,0,0.0,0,0,0.0,0.0
2026,7,21,19,22,?9?9?9?9E0?9?9?9*9*9?9?9?9?9?9?9*9?9*9*9?9*9,30.66,23.49,64.2,0,0,0,0,0,0.5,0,0,9999,9999,9,999999999,0,0.0,0,0,0.0,0.0
2026,7,21,19,23,?9?9?9?9E0?9?9?9*9*9?9?9?9?9?9?9*9?9*9*9?9*9,30.66,23.49,64.2,0,0,0,0,0,0.5,0,0,9999,9999,9,999999999,0,0.0,0,0,0.0,0.0
2026,7,21,19,24,?9?9?9?9E0?9?9?9*9*9?9?9?9?9?9?9*9?9*9*9?9*9,30.66,23.49,64.2,0,0,0,0,0,0.5,0,0,9999,9999,9,999999999,0,0.0,0,0,0.0,0.0
2026,7,21,19,25,?9?9?9?9E0?9?9?9*9*9?9?9?9?9?9?9*9?9*9*9?9*9,30.66,23.49,64.2,0,0,0,0,0,0.5,0,0,9999,9999,9,999999999,0,0.0,0,0,0.0,0.0
2026,7,21,19,26,?9?9?9?9E0?9?9?9*9*9?9?9?9?9?9?9*9?9*9*9?9*9,30.66,23.49,64.2,0,0,0,0,0,0.5,0,0,9999,9999,9,999999999,0,0.0,0,0,0.0,0.0
2026,7,21,19,27,?9?9?9?9E0?9?9?9*9*9?9?9?9?9?9?9*9?9*9*9?9*9,30.66,23.49,64.2,0,0,0,0,0,0.5,0,0,9999,9999,9,999999999,0,0.0,0,0,0.0,0.0
2026,7,21,19,28,?9?9?9?9E0?9?9?9*9*9?9?9?9?9?9?9*9?9*9*9?9*9,30.66,23.49,64.2,0,0,0,0,0,0.5,0,0,9999,9999,9,999999999,0,0.0,0,0,0.0,0.0
2026,7,21,19,29,?9?9?9?9E0?9?9?9*9*9?9?9?9?9?9?9*9?9*9*9?9*9,30.66,23.49,64.2,0,0,0,0,0,0.5,0,0,9999,9999,9,999999999,0,0.0,0,0,0.0,0.0
2026,7,21,19,30,?9?9?9?9E0?9?9?9*9*9?9?9?9?9?9?9*9?9*9*9?9*9,30.66,23.49,64.2,0,0,0,0,0,0.5,0,0,9999,9999,9,999999999,0,0.0,0,0,0.0,0.0
2026,7,21,19,31,?9?9?9?9E0?9?9?9*9*9?9?9?9?9?9?9*9?9*9*9?9*9,30.66,23.49,64.2,0,0,0,0,0,0.5,0,0,9999,9999,9,999999999,0,0.0,0,0,0.0,0.0
2026,7,21,19,32,?9?9?9?9E0?9?9?9*9*9?9?9?9?9?9?9*9?9*9*9?9*9,30.66,23.49,64.2,0,0,0,0,0,0.5,0,0,9999,9999,9,999999999,0,0.0,0,0,0.0,0.0
2026,7,21,19,33,?9?9?9?9E0?9?9?9*9*9?9?9?9?9?9?9*9?9*9*9?9*9,30.66,23.49,64.2,0,0,0,0,0,0.5,0,0,9999,9999,9,999999999,0,0.0,0,0,0.0,0.0
2026,7,21,19,34,?9?9?9?9E0?9?9?9*9*9?9?9?9?9?9?9*9?9*9*9?9*9,30.66,23.49,64.2,0,0,0,0,0,0.5,0,0,9999,9999,9,999999999,0,0.0,0,0,0.0,0.0
2026,7,21,19,35,?9?9?9?9E0?9?9?9*9*9?9?9?9?9?9?9*9?9*9*9?9*9,30.66,23.49,64.2,0,0,0,0,0,0.5,0,0,9999,9999,9,999999999,0,0.0,0,0,0.0,0.0
2026,7,21,19,36,?9?9?9?9E0?9?9?9*9*9?9?9?9?9?9?9*9?9*9*9?9*9,30.66,23.49,64.2,0,0,0,0,0,0.5,0,0,9999,9999,9,999999999,0,0.0,0,0,0.0,0.0
2026,7,21,19,37,?9?9?9?9E0?9?9?9*9*9?9?9?9?9?9?9*9?9*9*9?9*9,30.66,23.49,64.2,0,0,0,0,0,0.5,0,0,9999,9999,9,999999999,0,0.0,0,0,0.0,0.0
2026,7,21,19,38,?9?9?9?9E0?9?9?9*9*9?9?9?9?9?9?9*9?9*9*9?9*9,30.66,23.49,64.2,0,0,0,0,0,0.5,0,0,9999,9999,9,999999999,0,0.0,0,0,0.0,0.0
2026,7,21,19,39,?9?9?9?9E0?9?9?9*9*9?9?9?9?9?9?9*9?9*9*9?9*9,30.66,23.49,64.2,0,0,0,0,0,0.5,0,0,9999,9999,9,999999999,0,0.0,0,0,0.0,0.0
2026,7,21,19,40,?9?9?9?9E0?9?9?9*9*9?9?9?9?9?9?9*9?9*9*9?9*9,30.66,23.49,64.2,0,0,0,0,0,0.5,0,0,9999,9999,9,999999999,0,0.0,0,0,0.0,0.0
2026,7,21,19,41,?9?9?9?9E0?9?9?9*9*9?9?9?9?9?9?9*9?9*9*9?9*9,30.66,23.49,64.2,0,0,0,0,0,0.5,0,0,9999,9999,9,999999999,0,0.0,0,0,0.0,0.0
2026,7,21,19,42,?9?9?9?9E0?9?9?9*9*9?9?9?9?9?9?9*9?9*9*9?9*9,30.66,23.49,64.2,0,0,0,0,0,0.5,0,0,9999,9999,9,999999999,0,0.0,0,0,0.0,0.0
2026,7,21,19,43,?9?9?9?9E0?9?9?9*9*9?9?9?9?9?9?9*9?9*9*9?9*9,30.66,23.49,64.2,0,0,0,0,0,0.5,0,0,9999,9999,9,999999999,0,0.0,0,0,0.0,0.0
2026,7,21,19,44,?9?9?9?9E0?9?9?9*9*9?9?9?9?9?9?9*9?9*9*9?9*9,30.66,23.49,64.2,0,0,0,0,0,0.5,0,0,9999,9999,9,999999999,0,0.0,0,0,0.0,0.0
2026,7,21,19,45,?9?9?9?9E0?9?9?9*9*9?9?9?9?9?9?9*9?9*9*9?9*9,30.66,23.49,64.2,0,0,0,0,0,0.5,0,0,9999,9999,9,999999999,0,0.0,0,0,0.0,0.0
2026,7,21,19,46,?9?9?9?9E0?9?9?9*9*9?9?9?9?9?9?9*9?9*9*9?9*9,30.66,23.49,64.2,0,0,0,0,0,0.5,0,0,9999,9999,9,999999999,0,0.0,0,0,0.0,0.0
2026,7,21,19,47,?9?9?9?9E0?9?9?9*9*9?9?9?9?9?9?9*9?9*9*9?9*9,30.66,23.49,64.2,0,0,0,0,0,0.5,0,0,9999,9999,9,999999999,0,0.0,0,0,0.0,0.0
2026,7,21,19,48,?9?9?9?9E0?9?9?9*9*9?9?9?9?9?9?9*9?9*9*9?9*9,30.66,23.49,64.2,0,0,0,0,0,0.5,0,0,9999,9999,9,999999999,0,0.0,0,0,0.0,0.0
2026,7,21,19,49,?9?9?9?9E0?9?9?9*9*9?9?9?9?9?9?9*9?9*9*9?9*9,30.66,23.49,64.2,0,0,0,0,0,0.5,0,0,9999,9999,9,999999999,0,0.0,0,0,0.0,0.0
2026,7,21,19,50,?9?9?9?9E0?9?9?9*9*9?9?9?9?9?9?9*9?9*9*9?9*9,30.66,23.49,64.2,0,0,0,0,0,0.5,0,0,9999,9999,9,999999999,0,0.0,0,0,0.0,0.0
2026,7,21,19,51,?9?9?9?9E0?9?9?9*9*9?9?9?9?9?9?9*9?9*9*9?9*9,30.66,23.49,64.2,0,0,0,0,0,0.5,0,0,9999,9999,9,999999999,0,0.0,0,0,0.0,0.0
2026,7,21,19,52,?9?9?9?9E0?9?9?9*9*9?9?9?9?9?9?9*9?9*9*9?9*9,30.66,23.49,64.2,0,0,0,0,0,0.5,0,0,9999,9999,9,999999999,0,0.0,0,0,0.0,0.0
2026,7,21,19,53,?9?9?9?9E0?9?9?9*9*9?9?9?9?9?9?9*9?9*9*9?9*9,30.66,23.49,64.2,0,0,0,0,0,0.5,0,0,9999,9999,9,999999999,0,0.0,0,0,0.0,0.0
2026,7,21,19,54,?9?9?9?9E0?9?9?9*9*9?9?9?9?9?9?9*9?9*9*9?9*9,30.66,23.49,64.2,0,0,0,0,0,0.5,0,0,9999,9999,9,999999999,0,0.0,0,0,0.0,0.0
2026,7,21,19,55,?9?9?9?9E0?9?9?9*9*9?9?9?9?9?9?9*9?9*9*9?9*9,30.66,23.49,64.2,0,0,0,0,0,0.5,0,0,9999,9999,9,999999999,0,0.0,0,0,0.0,0.0
2026,7,21,19,56,?9?9?9?9E0?9?9?9*9*9?9?9?9?9?9?9*9?9*9*9?9*9,30.66,23.49,64.2,0,0,0,0,0,0.5,0,0,9999,9999,9,999999999,0,0.0,0,0,0.0,0.0
2026,7,21,19,57,?9?9?9?9E0?9?9?9*9*9?9?9?9?9?9?9*9?9*9*9?9*9,30.66,23.49,64.2,0,0,0,0,0,0.5,0,0,9999,9999,9,999999999,0,0.0,0,0,0.0,0.0
2026,7,21,19,58,?9?9?9?9E0?9?9?9*9*9?9?9?9?9?9?9*9?9*9*9?9*9,30.66,23.49,64.2,0,0,0,0,0,0.5,0,0,9999,9999,9,999999999,0,0.0,0,0,0.0,0.0
2026,7,21,19,59,?9?9?9?9E0?9?9?9*9*9?9?9?9?9?9?9*9?9*9*9?9*9,30.66,23.49,64.2,0,0,0,0,0,0.5,0,0,9999,9999,9,999999999,0,0.0,0,0,0.0,0.0
2026,7,21,19,60,?9?9?9?9E0?9?9?9*9*9?9?9?9?9?9?9*9?9*9*9?9*9,30.66,23.49,64.2,0,0,0,0,0,0.5,0,0,9999,9999,9,999999999,0,0.0,0,0,0.0,0.0
2026,7,21,20,1,?9?9?9?9E0?9?9?9*9*9?9?9?9?9?9?9*9?9*9*9?9*9,30.66,23.49,64.2,0,0,0,0,0,0.5,0,0,9999,9999,9,999999999,0,0.0,0,0,0.0,0.0
2026,7,21,20,2,?9?9?9?9E0?9?9?9*9*9?9?9?9?9?9?9*9?9*9*9?9*9,30.66,23.49,64.2,0,0,0,0,0,0.5,0,0,9999,9999,9,999999999,0,0.0,0,0,0.0,0.0
2026,7,21,20,3,?9?9?9?9E0?9?9?9*9*9?9?9?9?9?9?9*9?9*9*9?9*9,30.66,23.49,64.2,0,0,0,0,0,0.5,0,0,9999,9999,9,999999999,0,0.0,0,0,0.0,0.0
2026,7,21,20,4,?9?9?9?9E0?9?9?9*9*9?9?9?9?9?9?9*9?9*9*9?9*9,30.66,23.49,64.2,0,0,0,0,0,0.5,0,0,9999,9999,9,999999999,0,0.0,0,0,0.0,0.0
2026,7,21,20,5,?9?9?9?9E0?9?9?9*9*9?9?9?9?9?9?9*9?9*9*9?9*9,30.66,23.49,64.2,0,0,0,0,0,0.5,0,0,9999,9999,9,999999999,0,0.0,0,0,0.0,0.0
2026,7,21,20,6,?9?9?9?9E0?9?9?9*9*9?9?9?9?9?9?9*9?9*9*9?9*9,30.66,23.49,64.2,0,0,0,0,0,0.5,0,0,9999,9999,9,999999999,0,0.0,0,0,0.0,0.0
2026,7,21,20,7,?9?9?9?9E0?9?9?9*9*9?9?9?9?9?9?9*9?9*9*9?9*9,30.66,23.49,64.2,0,0,0,0,0,0.5,0,0,9999,9999,9,999999999,0,0.0,0,0,0.0,0.0
2026,7,21,20,8,?9?9?9?9E0?9?9?9*9*9?9?9?9?9?9?9*9?9*9*9?9*9,30.66,23.49,64.2,0,0,0,0,0,0.5,0,0,9999,9999,9,999999999,0,0.0,0,0,0.0,0.0
2026,7,21,20,9,?9?9?9?9E0?9?9?9*9*9?9?9?9?9?9?9*9?9*9*9?9*9,30.66,23.49,64.2,0,0,0,0,0,0.5,0,0,9999,9999,9,999999999,0,0.0,0,0,0.0,0.0
2026,7,21,20,10,?9?9?9?9E0?9?9?9*9*9?9?9?9?9?9?9*9?9*9*9?9*9,30.66,23.49,64.2,0,0,0,0,0,0.5,0,0,9999,9999,9,999999999,0,0.0,0,0,0.0,0.0
2026,7,21,20,11,?9?9?9?9E0?9?9?9*9*9?9?9?9?9?9?9*9?9*9*9?9*9,30.66,23.49,64.2,0,0,0,0,0,0.5,0,0,9999,9999,9,999999999,0,0.0,0,0,0.0,0.0
2026,7,21,20,12,?9?9?9?9E0?9?9?9*9*9?9?9?9?9?9?9*9?9*9*9?9*9,30.66,23.49,64.2,0,0,0,0,0,0.5,0,0,9999,9999,9,999999999,0,0.0,0,0,0.0,0.0
2026,7,21,20,13,?9?9?9?9E0?9?9?9*9*9?9?9?9?9?9?9*9?9*9*9?9*9,30.66,23.49,64.2,0,0,0,0,0,0.5,0,0,9999,9999,9,999999999,0,0.0,0,0,0.0,0.0
2026,7,21,20,14,?9?9?9?9E0?9?9?9*9*9?9?9?9?9?9?9*9?9*9*9?9*9,30.66,23.49,64.2,0,0,0,0,0,0.5,0,0,9999,9999,9,999999999,0,0.0,0,0,0.0,0.0
2026,7,21,20,15,?9?9?9?9E0?9?9?9*9*9?9?9?9?9?9?9*9?9*9*9?9*9,30.66,23.49,64.2,0,0,0,0,0,0.5,0,0,9999,9999,9,999999999,0,0.0,0,0,0.0,0.0
2026,7,21,20,16,?9?9?9?9E0?9?9?9*9*9?9?9?9?9?9?9*9?9*9*9?9*9,30.66,23.49,64.2,0,0,0,0,0,0.5,0,0,9999,9999,9,999999999,0,0.0,0,0,0.0,0.0
2026,7,21,20,17,?9?9?9?9E0?9?9?9*9*9?9?9?9?9?9?9*9?9*9*9?9*9,30.66,23.49,64.2,0,0,0,0,0,0.5,0,0,9999,9999,9,999999999,0,0.0,0,0,0.0,0.0
2026,7,21,20,18,?9?9?9?9E0?9?9?9*9*9?9?9?9?9?9?9*9?9*9*9?9*9,30.66,23.49,64.2,0,0,0,0,0,0.5,0,0,9999,9999,9,999999999,0,0.0,0,0,0.0,0.0
2026,7,21,20,19,?9?9?9?9E0?9?9?9*9*9?9?9?9?9?9?9*9?9*9*9?9*9,30.66,23.49,64.2,0,0,0,0,0,0.5,0,0,9999,9999,9,999999999,0,0.0,0,0,0.0,0.0
2026,7,21,20,20,?9?9?9?9E0?9?9?9*9*9?9?9?9?9?9?9*9?9*9*9?9*9,30.66,23.49,64.2,0,0,0,0,0,0.5,0,0,9999,9999,9,999999999,0,0.0,0,0,0.0,0.0
2026,7,21,20,21,?9?9?9?9E0?9?9?9*9*9?9?9?9?9?9?9*9?9*9*9?9*9,30.66,23.49,64.2,0,0,0,0,0,0.5,0,0,9999,9999,9,999999999,0,0.0,0,0,0.0,0.0
2026,7,21,20,22,?9?9?9?9E0?9?9?9*9*9?9?9?9?9?9?9*9?9*9*9?9*9,30.66,23.49,64.2,0,0,0,0,0,0.5,0,0,9999,9999,9,999999999,0,0.0,0,0,0.0,0.0
2026,7,21,20,23,?9?9?9?9E0?9?9?9*9*9?9?9?9?9?9?9*9?9*9*9?9*9,30.66,23.49,64.2,0,0,0,0,0,0.5,0,0,9999,9999,9,999999999,0,0.0,0,0,0.0,0.0
2026,7,21,20,24,?9?9?9?9E0?9?9?9*9*9?9?9?9?9?9?9*9?9*9*9?9*9,30.66,23.49,64.2,0,0,0,0,0,0.5,0,0,9999,9999,9,999999999,0,0.0,0,0,0.0,0.0
2026,7,21,20,25,?9?9?9?9E0?9?9?9*9*9?9?9?9?9?9?9*9?9*9*9?9*9,30.66,23.49,64.2,0,0,0,0,0,0.5,0,0,9999,9999,9,999999999,0,0.0,0,0,0.0,0.0
2026,7,21,20,26,?9?9?9?9E0?9?9?9*9*9?9?9?9?9?9?9*9?9*9*9?9*9,30.66,23.49,64.2,0,0,0,0,0,0.5,0,0,9999,9999,9,999999999,0,0.0,0,0,0.0,0.0
2026,7,21,20,27,?9?9?9?9E0?9?9?9*9*9?9?9?9?9?9?9*9?9*9*9?9*9,30.66,23.49,64.2,0,0,0,0,0,0.5,0,0,9999,9999,9,999999999,0,0.0,0,0,0.0,0.0
2026,7,21,20,28,?9?9?9?9E0?9?9?9*9*9?9?9?9?9?9?9*9?9*9*9?9*9,30.66,23.49,64.2,0,0,0,0,0,0.5,0,0,9999,9999,9,999999999,0,0.0,0,0,0.0,0.0
2026,7,21,20,29,?9?9?9?9E0?9?9?9*9*9?9?9?9?9?9?9*9?9*9*9?9*9,30.66,23.49,64.2,0,0,0,0,0,0.5,0,0,9999,9999,9,999999999,0,0.0,0,0,0.0,0.0
2026,7,21,20,30,?9?9?9?9E0?9?9?9*9*9?9?9?9?9?9?9*9?9*9*9?9*9,30.66,23.49,64.2,0,0,0,0,0,0.5,0,0,9999,9999,9,999999999,0,0.0,0,0,0.0,0.0
2026,7,21,20,31,?9?9?9?9E0?9?9?9*9*9?9?9?9?9?9?9*9?9*9*9?9*9,30.66,23.49,64.2,0,0,0,0,0,0.5,0,0,9999,9999,9,999999999,0,0.0,0,0,0.0,0.0
2026,7,21,20,32,?9?9?9?9E0?9?9?9*9*9?9?9?9?9?9?9*9?9*9*9?9*9,30.66,23.49,64.2,0,0,0,0,0,0.5,0,0,9999,9999,9,999999999,0,0.0,0,0,0.0,0.0
2026,7,21,20,33,?9?9?9?9E0?9?9?9*9*9?9?9?9?9?9?9*9?9*9*9?9*9,30.66,23.49,64.2,0,0,0,0,0,0.5,0,0,9999,9999,9,999999999,0,0.0,0,0,0.0,0.0
2026,7,21,20,34,?9?9?9?9E0?9?9?9*9*9?9?9?9?9?9?9*9?9*9*9?9*9,30.66,23.49,64.2,0,0,0,0,0,0.5,0,0,9999,9999,9,999999999,0,0.0,0,0,0.0,0.0
2026,7,21,20,35,?9?9?9?9E0?9?9?9*9*9?9?9?9?9?9?9*9?9*9*9?9*9,30.66,23.49,64.2,0,0,0,0,0,0.5,0,0,9999,9999,9,999999999,0,0.0,0,0,0.0,0.0
2026,7,21,20,36,?9?9?9?9E0?9?9?9*9*9?9?9?9?9?9?9*9?9*9*9?9*9,30.66,23.49,64.2,0,0,0,0,0,0.5,0,0,9999,9999,9,999999999,0,0.0,0,0,0.0,0.0
2026,7,21,20,37,?9?9?9?9E0?9?9?9*9*9?9?9?9?9?9?9*9?9*9*9?9*9,30.66,23.49,64.2,0,0,0,0,0,0.5,0,0,9999,9999,9,999999999,0,0.0,0,0,0.0,0.0
2026,7,21,20,38,?9?9?9?9E0?9?9?9*9*9?9?9?9?9?9?9*9?9*9*9?9*9,30.66,23.49,64.2,0,0,0,0,0,0.5,0,0,9999,9999,9,999999999,0,0.0,0,0,0.0,0.0
2026,7,21,20,39,?9?9?9?9E0?9?9?9*9*9?9?9?9?9?9?9*9?9*9*9?9*9,30.66,23.49,64.2,0,0,0,0,0,0.5,0,0,9999,9999,9,999999999,0,0.0,0,0,0.0,0.0
2026,7,21,20,40,?9?9?9?9E0?9?9?9*9*9?9?9?9?9?9?9*9?9*9*9?9*9,30.66,23.49,64.2,0,0,0,0,0,0.5,0,0,9999,9999,9,999999999,0,0.0,0,0,0.0,0.0
2026,7,21,20,41,?9?9?9?9E0?9?9?9*9*9?9?9?9?9?9?9*9?9*9*9?9*9,30.66,23.49,64.2,0,0,0,0,0,0.5,0,0,9999,9999,9,999999999,0,0.0,0,0,0.0,0.0
2026,7,21,20,42,?9?9?9?9E0?9?9?9*9*9?9?9?9?9?9?9*9?9*9*9?9*9,30.66,23.49,64.2,0,0,0,0,0,0.5,0,0,9999,9999,9,999999999,0,0.0,0,0,0.0,0.0
2026,7,21,20,43,?9?9?9?9E0?9?9?9*9*9?9?9?9?9?9?9*9?9*9*9?9*9,30.66,23.49,64.2,0,0,0,0,0,0.5,0,0,9999,9999,9,999999999,0,0.0,0,0,0.0,0.0
2026,7,21,20,44,?9?9?9?9E0?9?9?9*9*9?9?9?9?9?9?9*9?9*9*9?9*9,30.66,23.49,64.2,0,0,0,0,0,0.5,0,0,9999,9999,9,999999999,0,0.0,0,0,0.0,0.0
2026,7,21,20,45,?9?9?9?9E0?9?9?9*9*9?9?9?9?9?9?9*9?9*9*9?9*9,30.66,23.49,64.2,0,0,0,0,0,0.5,0,0,9999,9999,9,999999999,0,0.0,0,0,0.0,0.0
2026,7,21,20,46,?9?9?9?9E0?9?9?9*9*9?9?9?9?9?9?9*9?9*9*9?9*9,30.66,23.49,64.2,0,0,0,0,0,0.5,0,0,9999,9999,9,999999999,0,0.0,0,0,0.0,0.0
2026,7,21,20,47,?9?9?9?9E0?9?9?9*9*9?9?9?9?9?9?9*9?9*9*9?9*9,30.66,23.49,64.2,0,0,0,0,0,0.5,0,0,9999,9999,9,999999999,0,0.0,0,0,0.0,0.0
2026,7,21,20,48,?9?9?9?9E0?9?9?9*9*9?9?9?9?9?9?9*9?9*9*9?9*9,30.66,23.49,64.2,0,0,0,0,0,0.5,0,0,9999,9999,9,999999999,0,0.0,0,0,0.0,0.0
2026,7,21,20,49,?9?9?9?9E0?9?9?9*9*9?9?9?9?9?9?9*9?9*9*9?9*9,30.66,23.49,64.2,0,0,0,0,0,0.5,0,0,9999,9999,9,999999999,0,0.0,0,0,0.0,0.0
2026,7,21,20,50,?9?9?9?9E0?9?9?9*9*9?9?9?9?9?9?9*9?9*9*9?9*9,30.66,23.49,64.2,0,0,0,0,0,0.5,0,0,9999,9999,9,999999999,0,0.0,0,0,0.0,0.0
2026,7,21,20,51,?9?9?9?9E0?9?9?9*9*9?9?9?9?9?9?9*9?9*9*9?9*9,30.66,23.49,64.2,0,0,0,0,0,0.5,0,0,9999,9999,9,999999999,0,0.0,0,0,0.0,0.0
2026,7,21,20,52,?9?9?9?9E0?9?9?9*9*9?9?9?9?9?9?9*9?9*9*9?9*9,30.66,23.49,64.2,0,0,0,0,0,0.5,0,0,9999,9999,9,999999999,0,0.0,0,0,0.0,0.0
2026,7,21,20,53,?9?9?9?9E0?9?9?9*9*9?9?9?9?9?9?9*9?9*9*9?9*9,30.66,23.49,64.2,0,0,0,0,0,0.5,0,0,9999,9999,9,999999999,0,0.0,0,0,0.0,0.0
2026,7,21,20,54,?9?9?9?9E0?9?9?9*9*9?9?9?9?9?9?9*9?9*9*9?9*9,30.66,23.49,64.2,0,0,0,0,0,0.5,0,0,9999,9999,9,999999999,0,0.0,0,0,0.0,0.0
2026,7,21,20,55,?9?9?9?9E0?9?9?9*9*9?9?9?9?9?9?9*9?9*9*9?9*9,30.66,23.49,64.2,0,0,0,0,0,0.5,0,0,9999,9999,9,999999999,0,0.0,0,0,0.0,0.0
2026,7,21,20,56,?9?9?9?9E0?9?9?9*9*9?9?9?9?9?9?9*9?9*9*9?9*9,30.66,23.49,64.2,0,0,0,0,0,0.5,0,0,9999,9999,9,999999999,0,0.0,0,0,0.0,0.0
2026,7,21,20,57,?9?9?9?9E0?9?9?9*9*9?9?9?9?9?9?9*9?9*9*9?9*9,30.66,23.49,64.2,0,0,0,0,0,0.5,0,0,9999,9999,9,999999999,0,0.0,0,0,0.0,0.0
2026,7,21,20,58,?9?9?9?9E0?9?9?9*9*9?9?9?9?9?9?9*9?9*9*9?9*9,30.66,23.49,64.2,0,0,0,0,0,0.5,0,0,9999,9999,9,999999999,0,0.0,0,0,0.0,0.0
2026,7,21,20,59,?9?9?9?9E0?9?9?9*9*9?9?9?9?9?9?9*9?9*9*9?9*9,30.66,23.49,64.2,0,0,0,0,0,0.5,0,0,9999,9999,9,999999999,0,0.0,0,0,0.0,0.0
2026,7,21,20,60,?9?9?9?9E0?9?9?9*9*9?9?9?9?9?9?9*9?9*9*9?9*9,30.66,23.49,64.2,0,0,0,0,0,0.5,0,0,9999,9999,9,999999999,0,0.0,0,0,0.0,0.0
2026,7,21,21,1,?9?9?9?9E0?9?9?9*9*9?9?9?9?9?9?9*9?9*9*9?9*9,30.66,23.49,64.2,0,0,0,0,0,0.5,0,0,9999,9999,9,999999999,0,0.0,0,0,0.0,0.0
2026,7,21,21,2,?9?9?9?9E0?9?9?9*9*9?9?9?9?9?9?9*9?9*9*9?9*9,30.66,23.49,64.2,0,0,0,0,0,0.5,0,0,9999,9999,9,999999999,0,0.0,0,0,0.0,0.0
2026,7,21,21,3,?9?9?9?9E0?9?9?9*9*9?9?9?9?9?9?9*9?9*9*9?9*9,30.66,23.49,64.2,0,0,0,0,0,0.5,0,0,9999,9999,9,999999999,0,0.0,0,0,0.0,0.0
2026,7,21,21,4,?9?9?9?9E0?9?9?9*9*9?9?9?9?9?9?9*9?9*9*9?9*9,30.66,23.49,64.2,0,0,0,0,0,0.5,0,0,9999,9999,9,999999999,0,0.0,0,0,0.0,0.0
2026,7,21,21,5,?9?9?9?9E0?9?9?9*9*9?9?9?9?9?9?9*9?9*9*9?9*9,30.66,23.49,64.2,0,0,0,0,0,0.5,0,0,9999,9999,9,999999999,0,0.0,0,0,0.0,0.0
2026,7,21,21,6,?9?9?9?9E0?9?9?9*9*9?9?9?9?9?9?9*9?9*9*9?9*9,30.66,23.49,64.2,0,0,0,0,0,0.5,0,0,9999,9999,9,999999999,0,0.0,0,0,0.0,0.0
2026,7,21,21,7,?9?9?9?9E0?9?9?9*9*9?9?9?9?9?9?9*9?9*9*9?9*9,30.66,23.49,64.2,0,0,0,0,0,0.5,0,0,9999,9999,9,999999999,0,0.0,0,0,0.0,0.0
2026,7,21,21,8,?9?9?9?9E0?9?9?9*9*9?9?9?9?9?9?9*9?9*9*9?9*9,30.66,23.49,64.2,0,0,0,0,0,0.5,0,0,9999,9999,9,999999999,0,0.0,0,0,0.0,0.0
2026,7,21,21,9,?9?9?9?9E0?9?9?9*9*9?9?9?9?9?9?9*9?9*9*9?9*9,30.66,23.49,64.2,0,0,0,0,0,0.5,0,0,9999,9999,9,999999999,0,0.0,0,0,0.0,0.0
2026,7,21,21,10,?9?9?9?9E0?9?9?9*9*9?9?9?9?9?9?9*9?9*9*9?9*9,30.66,23.49,64.2,0,0,0,0,0,0.5,0,0,9999,9999,9,999999999,0,0.0,0,0,0.0,0.0
2026,7,21,21,11,?9?9?9?9E0?9?9?9*9*9?9?9?9?9?9?9*9?9*9*9?9*9,30.66,23.49,64.2,0,0,0,0,0,0.5,0,0,9999,9999,9,999999999,0,0.0,0,0,0.0,0.0
2026,7,21,21,12,?9?9?9?9E0?9?9?9*9*9?9?9?9?9?9?9*9?9*9*9?9*9,30.66,23.49,64.2,0,0,0,0,0,0.5,0,0,9999,9999,9,999999999,0,0.0,0,0,0.0,0.0
2026,7,21,21,13,?9?9?9?9E0?9?9?9*9*9?9?9?9?9?9?9*9?9*9*9?9*9,30.66,23.49,64.2,0,0,0,0,0,0.5,0,0,9999,9999,9,999999999,0,0.0,0,0,0.0,0.0
2026,7,21,21,14,?9?9?9?9E0?9?9?9*9*9?9?9?9?9?9?9*9?9*9*9?9*9,30.66,23.49,64.2,0,0,0,0,0,0.5,0,0,9999,9999,9,999999999,0,0.0,0,0,0.0,0.0
2026,7,21,21,15,?9?9?9?9E0?9?9?9*9*9?9?9?9?9?9?9*9?9*9*9?9*9,30.66,23.49,64.2,0,0,0,0,0,0.5,0,0,9999,9999,9,999999999,0,0.0,0,0,0.0,0.0
2026,7,21,21,16,?9?9?9?9E0?9?9?9*9*9?9?9?9?9?9?9*9?9*9*9?9*9,30.66,23.49,64.2,0,0,0,0,0,0.5,0,0,9999,9999,9,999999999,0,0.0,0,0,0.0,0.0
2026,7,21,21,17,?9?9?9?9E0?9?9?9*9*9?9?9?9?9?9?9*9?9*9*9?9*9,30.66,23.49,64.2,0,0,0,0,0,0.5,0,0,9999,9999,9,999999999,0,0.0,0,0,0.0,0.0
2026,7,21,21,18,?9?9?9?9E0?9?9?9*9*9?9?9?9?9?9?9*9?9*9*9?9*9,30.66,23.49,64.2,0,0,0,0,0,0.5,0,0,9999,9999,9,999999999,0,0.0,0,0,0.0,0.0
2026,7,21,21,19,?9?9?9?9E0?9?9?9*9*9?9?9?9?9?9?9*9?9*9*9?9*9,30.66,23.49,64.2,0,0,0,0,0,0.5,0,0,9999,9999,9,999999999,0,0.0,0,0,0.0,0.0
2026,7,21,21,20,?9?9?9?9E0?9?9?9*9*9?9?9?9?9?9?9*9?9*9*9?9*9,30.66,23.49,64.2,0,0,0,0,0,0.5,0,0,9999,9999,9,999999999,0,0.0,0,0,0.0,0.0
2026,7,21,21,21,?9?9?9?9E0?9?9?9*9*9?9?9?9?9?9?9*9?9*9*9?9*9,30.66,23.49,64.2,0,0,0,0,0,0.5,0,0,9999,9999,9,999999999,0,0.0,0,0,0.0,0.0
2026,7,21,21,22,?9?9?9?9E0?9?9?9*9*9?9?9?9?9?9?9*9?9*9*9?9*9,30.66,23.49,64.2,0,0,0,0,0,0.5,0,0,9999,9999,9,999999999,0,0.0,0,0,0.0,0.0
2026,7,21,21,23,?9?9?9?9E0?9?9?9*9*9?9?9?9?9?9?9*9?9*9*9?9*9,30.66,23.49,64.2,0,0,0,0,0,0.5,0,0,9999,9999,9,999999999,0,0.0,0,0,0.0,0.0
2026,7,21,21,24,?9?9?9?9E0?9?9?9*9*9?9?9?9?9?9?9*9?9*9*9?9*9,30.66,23.49,64.2,0,0,0,0,0,0.5,0,0,9999,9999,9,999999999,0,0.0,0,0,0.0,0.0
2026,7,21,21,25,?9?9?9?9E0?9?9?9*9*9?9?9?9?9?9?9*9?9*9*9?9*9,30.66,23.49,64.2,0,0,0,0,0,0.5,0,0,9999,9999,9,999999999,0,0.0,0,0,0.0,0.0
2026,7,21,21,26,?9?9?9?9E0?9?9?9*9*9?9?9?9?9?9?9*9?9*9*9?9*9,30.66,23.49,64.2,0,0,0,0,0,0.5,0,0,9999,9999,9,999999999,0,0.0,0,0,0.0,0.0
2026,7,21,21,27,?9?9?9?9E0?9?9?9*9*9?9?9?9?9?9?9*9?9*9*9?9*9,30.66,23.49,64.2,0,0,0,0,0,0.5,0,0,9999,9999,9,999999999,0,0.0,0,0,0.0,0.0
2026,7,21,21,28,?9?9?9?9E0?9?9?9*9*9?9?9?9?9?9?9*9?9*9*9?9*9,30.66,23.49,64.2,0,0,0,0,0,0.5,0,0,9999,9999,9,999999999,0,0.0,0,0,0.0,0.0
2026,7,21,21,29,?9?9?9?9E0?9?9?9*9*9?9?9?9?9?9?9*9?9*9*9?9*9,30.66,23.49,64.2,0,0,0,0,0,0.5,0,0,9999,9999,9,999999999,0,0.0,0,0,0.0,0.0
2026,7,21,21,30,?9?9?9?9E0?9?9?9*9*9?9?9?9?9?9?9*9?9*9*9?9*9,30.66,23.49,64.2,0,0,0,0,0,0.5,0,0,9999,9999,9,999999999,0,0.0,0,0,0.0,0.0
2026,7,21,21,31,?9?9?9?9E0?9?9?9*9*9?9?9?9?9?9?9*9?9*9*9?9*9,30.66,23.49,64.2,0,0,0,0,0,0.5,0,0,9999,9999,9,999999999,0,0.0,0,0,0.0,0.0
2026,7,21,21,32,?9?9?9?9E0?9?9?9*9*9?9?9?9?9?9?9*9?9*9*9?9*9,30.66,23.49,64.2,0,0,0,0,0,0.5,0,0,9999,9999,9,999999999,0,0.0,0,0,0.0,0.0
2026,7,21,21,33,?9?9?9?9E0?9?9?9*9*9?9?9?9?9?9?9*9?9*9*9?9*9,30.66,23.49,64.2,0,0,0,0,0,0.5,0,0,9999,9999,9,999999999,0,0.0,0,0,0.0,0.0
2026,7,21,21,34,?9?9?9?9E0?9?9?9*9*9?9?9?9?9?9?9*9?9*9*9?9*9,30.66,23.49,64.2,0,0,0,0,0,0.5,0,0,9999,9999,9,999999999,0,0.0,0,0,0.0,0.0
2026,7,21,21,35,?9?9?9?9E0?9?9?9*9*9?9?9?9?9?9?9*9?9*9*9?9*9,30.66,23.49,64.2,0,0,0,0,0,0.5,0,0,9999,9999,9,999999999,0,0.0,0,0,0.0,0.0
2026,7,21,21,36,?9?9?9?9E0?9?9?9*9*9?9?9?9?9?9?9*9?9*9*9?9*9,30.66,23.49,64.2,0,0,0,0,0,0.5,0,0,9999,9999,9,999999999,0,0.0,0,0,0.0,0.0
2026,7,21,21,37,?9?9?9?9E0?9?9?9*9*9?9?9?9?9?9?9*9?9*9*9?9*9,30.66,23.49,64.2,0,0,0,0,0,0.5,0,0,9999,9999,9,999999999,0,0.0,0,0,0.0,0.0
2026,7,21,21,38,?9?9?9?9E0?9?9?9*9*9?9?9?9?9?9?9*9?9*9*9?9*9,30.66,23.49,64.2,0,0,0,0,0,0.5,0,0,9999,9999,9,999999999,0,0.0,0,0,0.0,0.0
2026,7,21,21,39,?9?9?9?9E0?9?9?9*9*9?9?9?9?9?9?9*9?9*9*9?9*9,30.66,23.49,64.2,0,0,0,0,0,0.5,0,0,9999,9999,9,999999999,0,0.0,0,0,0.0,0.0
2026,7,21,21,40,?9?9?9?9E0?9?9?9*9*9?9?9?9?9?9?9*9?9*9*9?9*9,30.66,23.49,64.2,0,0,0,0,0,0.5,0,0,9999,9999,9,999999999,0,0.0,0,0,0.0,0.0
2026,7,21,21,41,?9?9?9?9E0?9?9?9*9*9?9?9?9?9?9?9*9?9*9*9?9*9,30.66,23.49,64.2,0,0,0,0,0,0.5,0,0,9999,9999,9,999999999,0,0.0,0,0,0.0,0.0
2026,7,21,21,42,?9?9?9?9E0?9?9?9*9*9?9?9?9?9?9?9*9?9*9*9?9*9,30.66,23.49,64.2,0,0,0,0,0,0.5,0,0,9999,9999,9,999999999,0,0.0,0,0,0.0,0.0
2026,7,21,21,43,?9?9?9?9E0?9?9?9*9*9?9?9?9?9?9?9*9?9*9*9?9*9,30.66,23.49,64.2,0,0,0,0,0,0.5,0,0,9999,9999,9,999999999,0,0.0,0,0,0.0,0.0
2026,7,21,21,44,?9?9?9?9E0?9?9?9*9*9?9?9?9?9?9?9*9?9*9*9?9*9,30.66,23.49,64.2,0,0,0,0,0,0.5,0,0,9999,9999,9,999999999,0,0.0,0,0,0.0,0.0
2026,7,21,21,45,?9?9?9?9E0?9?9?9*9*9?9?9?9?9?9?9*9?9*9*9?9*9,30.66,23.49,64.2,0,0,0,0,0,0.5,0,0,9999,9999,9,999999999,0,0.0,0,0,0.0,0.0
2026,7,21,21,46,?9?9?9?9E0?9?9?9*9*9?9?9?9?9?9?9*9?9*9*9?9*9,30.66,23.49,64.2,0,0,0,0,0,0.5,0,0,9999,9999,9,999999999,0,0.0,0,0,0.0,0.0
2026,7,21,21,47,?9?9?9?9E0?9?9?9*9*9?9?9?9?9?9?9*9?9*9*9?9*9,30.66,23.49,64.2,0,0,0,0,0,0.5,0,0,9999,9999,9,999999999,0,0.0,0,0,0.0,0.0
2026,7,21,21,48,?9?9?9?9E0?9?9?9*9*9?9?9?9?9?9?9*9?9*9*9?9*9,30.66,23.49,64.2,0,0,0,0,0,0.5,0,0,9999,9999,9,999999999,0,0.0,0,0,0.0,0.0
2026,7,21,21,49,?9?9?9?9E0?9?9?9*9*9?9?9?9?9?9?9*9?9*9*9?9*9,30.66,23.49,64.2,0,0,0,0,0,0.5,0,0,9999,9999,9,999999999,0,0.0,0,0,0.0,0.0
2026,7,21,21,50,?9?9?9?9E0?9?9?9*9*9?9?9?9?9?9?9*9?9*9*9?9*9,30.66,23.49,64.2,0,0,0,0,0,0.5,0,0,9999,9999,9,999999999,0,0.0,0,0,0.0,0.0
2026,7,21,21,51,?9?9?9?9E0?9?9?9*9*9?9?9?9?9?9?9*9?9*9*9?9*9,30.66,23.49,64.2,0,0,0,0,0,0.5,0,0,9999,9999,9,999999999,0,0.0,0,0,0.0,0.0
2026,7,21,21,52,?9?9?9?9E0?9?9?9*9*9?9?9?9?9?9?9*9?9*9*9?9*9,30.66,23.49,64.2,0,0,0,0,0,0.5,0,0,9999,9999,9,999999999,0,0.0,0,0,0.0,0.0
2026,7,21,21,53,?9?9?9?9E0?9?9?9*9*9?9?9?9?9?9?9*9?9*9*9?9*9,30.66,23.49,64.2,0,0,0,0,0,0.5,0,0,9999,9999,9,999999999,0,0.0,0,0,0.0,0.0
2026,7,21,21,54,?9?9?9?9E0?9?9?9*9*9?9?9?9?9?9?9*9?9*9*9?9*9,30.66,23.49,64.2,0,0,0,0,0,0.5,0,0,9999,9999,9,999999999,0,0.0,0,0,0.0,0.0
2026,7,21,21,55,?9?9?9?9E0?9?9?9*9*9?9?9?9?9?9?9*9?9*9*9?9*9,30.66,23.49,64.2,0,0,0,0,0,0.5,0,0,9999,9999,9,999999999,0,0.0,0,0,0.0,0.0
2026,7,21,21,56,?9?9?9?9E0?9?9?9*9*9?9?9?9?9?9?9*9?9*9*9?9*9,30.66,23.49,64.2,0,0,0,0,0,0.5,0,0,9999,9999,9,999999999,0,0.0,0,0,0.0,0.0
2026,7,21,21,57,?9?9?9?9E0?9?9?9*9*9?9?9?9?9?9?9*9?9*9*9?9*9,30.66,23.49,64.2,0,0,0,0,0,0.5,0,0,9999,9999,9,999999999,0,0.0,0,0,0.0,0.0
2026,7,21,21,58,?9?9?9?9E0?9?9?9*9*9?9?9?9?9?9?9*9?9*9*9?9*9,30.66,23.49,64.2,0,0,0,0,0,0.5,0,0,9999,9999,9,999999999,0,0.0,0,0,0.0,0.0
2026,7,21,21,59,?9?9?9?9E0?9?9?9*9*9?9?9?9?9?9?9*9?9*9*9?9*9,30.66,23.49,64.2,0,0,0,0,0,0.5,0,0,9999,9999,9,999999999,0,0.0,0,0,0.0,0.0
2026,7,21,21,60,?9?9?9?9E0?9?9?9*9*9?9?9?9?9?9?9*9?9*9*9?9*9,30.66,23.49,64.2,0,0,0,0,0,0.5,0,0,9999,9999,9,999999999,0,0.0,0,0,0.0,0.0
2026,7,21,22,1,?9?9?9?9E0?9?9?9*9*9?9?9?9?9?9?9*9?9*9*9?9*9,30.66,23.49,64.2,0,0,0,0,0,0.5,0,0,9999,9999,9,999999999,0,0.0,0,0,0.0,0.0
2026,7,21,22,2,?9?9?9?9E0?9?9?9*9*9?9?9?9?9?9?9*9?9*9*9?9*9,30.66,23.49,64.2,0,0,0,0,0,0.5,0,0,9999,9999,9,999999999,0,0.0,0,0,0.0,0.0
2026,7,21,22,3,?9?9?9?9E0?9?9?9*9*9?9?9?9?9?9?9*9?9*9*9?9*9,30.66,23.49,64.2,0,0,0,0,0,0.5,0,0,9999,9999,9,999999999,0,0.0,0,0,0.0,0.0
2026,7,21,22,4,?9?9?9?9E0?9?9?9*9*9?9?9?9?9?9?9*9?9*9*9?9*9,30.66,23.49,64.2,0,0,0,0,0,0.5,0,0,9999,9999,9,999999999,0,0.0,0,0,0.0,0.0
2026,7,21,22,5,?9?9?9?9E0?9?9?9*9*9?9?9?9?9?9?9*9?9*9*9?9*9,30.66,23.49,64.2,0,0,0,0,0,0.5,0,0,9999,9999,9,999999999,0,0.0,0,0,0.0,0.0
2026,7,21,22,6,?9?9?9?9E0?9?9?9*9*9?9?9?9?9?9?9*9?9*9*9?9*9,30.66,23.49,64.2,0,0,0,0,0,0.5,0,0,9999,9999,9,999999999,0,0.0,0,0,0.0,0.0
2026,7,21,22,7,?9?9?9?9E0?9?9?9*9*9?9?9?9?9?9?9*9?9*9*9?9*9,30.66,23.49,64.2,0,0,0,0,0,0.5,0,0,9999,9999,9,999999999,0,0.0,0,0,0.0,0.0
2026,7,21,22,8,?9?9?9?9E0?9?9?9*9*9?9?9?9?9?9?9*9?9*9*9?9*9,30.66,23.49,64.2,0,0,0,0,0,0.5,0,0,9999,9999,9,999999999,0,0.0,0,0,0.0,0.0
2026,7,21,22,9,?9?9?9?9E0?9?9?9*9*9?9?9?9?9?9?9*9?9*9*9?9*9,30.66,23.49,64.2,0,0,0,0,0,0.5,0,0,9999,9999,9,999999999,0,0.0,0,0,0.0,0.0
2026,7,21,22,10,?9?9?9?9E0?9?9?9*9*9?9?9?9?9?9?9*9?9*9*9?9*9,30.66,23.49,64.2,0,0,0,0,0,0.5,0,0,9999,9999,9,999999999,0,0.0,0,0,0.0,0.0
2026,7,21,22,11,?9?9?9?9E0?9?9?9*9*9?9?9?9?9?9?9*9?9*9*9?9*9,30.66,23.49,64.2,0,0,0,0,0,0.5,0,0,9999,9999,9,999999999,0,0.0,0,0,0.0,0.0
2026,7,21,22,12,?9?9?9?9E0?9?9?9*9*9?9?9?9?9?9?9*9?9*9*9?9*9,30.66,23.49,64.2,0,0,0,0,0,0.5,0,0,9999,9999,9,999999999,0,0.0,0,0,0.0,0.0
2026,7,21,22,13,?9?9?9?9E0?9?9?9*9*9?9?9?9?9?9?9*9?9*9*9?9*9,30.66,23.49,64.2,0,0,0,0,0,0.5,0,0,9999,9999,9,999999999,0,0.0,0,0,0.0,0.0
2026,7,21,22,14,?9?9?9?9E0?9?9?9*9*9?9?9?9?9?9?9*9?9*9*9?9*9,30.66,23.49,64.2,0,0,0,0,0,0.5,0,0,9999,9999,9,999999999,0,0.0,0,0,0.0,0.0
2026,7,21,22,15,?9?9?9?9E0?9?9?9*9*9?9?9?9?9?9?9*9?9*9*9?9*9,30.66,23.49,64.2,0,0,0,0,0,0.5,0,0,9999,9999,9,999999999,0,0.0,0,0,0.0,0.0
2026,7,21,22,16,?9?9?9?9E0?9?9?9*9*9?9?9?9?9?9?9*9?9*9*9?9*9,30.66,23.49,64.2,0,0,0,0,0,0.5,0,0,9999,9999,9,999999999,0,0.0,0,0,0.0,0.0
2026,7,21,22,17,?9?9?9?9E0?9?9?9*9*9?9?9?9?9?9?9*9?9*9*9?9*9,30.66,23.49,64.2,0,0,0,0,0,0.5,0,0,9999,9999,9,999999999,0,0.0,0,0,0.0,0.0
2026,7,21,22,18,?9?9?9?9E0?9?9?9*9*9?9?9?9?9?9?9*9?9*9*9?9*9,30.66,23.49,64.2,0,0,0,0,0,0.5,0,0,9999,9999,9,999999999,0,0.0,0,0,0.0,0.0
2026,7,21,22,19,?9?9?9?9E0?9?9?9*9*9?9?9?9?9?9?9*9?9*9*9?9*9,30.66,23.49,64.2,0,0,0,0,0,0.5,0,0,9999,9999,9,999999999,0,0.0,0,0,0.0,0.0
2026,7,21,22,20,?9?9?9?9E0?9?9?9*9*9?9?9?9?9?9?9*9?9*9*9?9*9,30.66,23.49,64.2,0,0,0,0,0,0.5,0,0,9999,9999,9,999999999,0,0.0,0,0,0.0,0.0
2026,7,21,22,21,?9?9?9?9E0?9?9?9*9*9?9?9?9?9?9?9*9?9*9*9?9*9,30.66,23.49,64.2,0,0,0,0,0,0.5,0,0,9999,9999,9,999999999,0,0.0,0,0,0.0,0.0
2026,7,21,22,22,?9?9?9?9E0?9?9?9*9*9?9?9?9?9?9?9*9?9*9*9?9*9,30.66,23.49,64.2,0,0,0,0,0,0.5,0,0,9999,9999,9,999999999,0,0.0,0,0,0.0,0.0
2026,7,21,22,23,?9?9?9?9E0?9?9?9*9*9?9?9?9?9?9?9*9?9*9*9?9*9,30.66,23.49,64.2,0,0,0,0,0,0.5,0,0,9999,9999,9,999999999,0,0.0,0,0,0.0,0.0
2026,7,21,22,24,?9?9?9?9E0?9?9?9*9*9?9?9?9?9?9?9*9?9*9*9?9*9,30.66,23.49,64.2,0,0,0,0,0,0.5,0,0,9999,9999,9,999999999,0,0.0,0,0,0.0,0.0
2026,7,21,22,25,?9?9?9?9E0?9?9?9*9*9?9?9?9?9?9?9*9?9*9*9?9*9,30.66,23.49,64.2,0,0,0,0,0,0.5,0,0,9999,9999,9,999999999,0,0.0,0,0,0.0,0.0
2026,7,21,22,26,?9?9?9?9E0?9?9?9*9*9?9?9?9?9?9?9*9?9*9*9?9*9,30.66,23.49,64.2,0,0,0,0,0,0.5,0,0,9999,9999,9,999999999,0,0.0,0,0,0.0,0.0
2026,7,21,22,27,?9?9?9?9E0?9?9?9*9*9?9?9?9?9?9?9*9?9*9*9?9*9,30.66,23.49,64.2,0,0,0,0,0,0.5,0,0,9999,9999,9,999999999,0,0.0,0,0,0.0,0.0
2026,7,21,22,28,?9?9?9?9E0?9?9?9*9*9?9?9?9?9?9?9*9?9*9*9?9*9,30.66,23.49,64.2,0,0,0,0,0,0.5,0,0,9999,9999,9,999999999,0,0.0,0,0,0.0,0.0
2026,7,21,22,29,?9?9?9?9E0?9?9?9*9*9?9?9?9?9?9?9*9?9*9*9?9*9,30.66,23.49,64.2,0,0,0,0,0,0.5,0,0,9999,9999,9,999999999,0,0.0,0,0,0.0,0.0
2026,7,21,22,30,?9?9?9?9E0?9?9?9*9*9?9?9?9?9?9?9*9?9*9*9?9*9,30.66,23.49,64.2,0,0,0,0,0,0.5,0,0,9999,9999,9,999999999,0,0.0,0,0,0.0,0.0
2026,7,21,22,31,?9?9?9?9E0?9?9?9*9*9?9?9?9?9?9?9*9?9*9*9?9*9,30.66,23.49,64.2,0,0,0,0,0,0.5,0,0,9999,9999,9,999999999,0,0.0,0,0,0.0,0.0
2026,7,21,22,32,?9?9?9?9E0?9?9?9*9*9?9?9?9?9?9?9*9?9*9*9?9*9,30.66,23.49,64.2,0,0,0,0,0,0.5,0,0,9999,9999,9,999999999,0,0.0,0,0,0.0,0.0
2026,7,21,22,33,?9?9?9?9E0?9?9?9*9*9?9?9?9?9?9?9*9?9*9*9?9*9,30.66,23.49,64.2,0,0,0,0,0,0.5,0,0,9999,9999,9,999999999,0,0.0,0,0,0.0,0.0
2026,7,21,22,34,?9?9?9?9E0?9?9?9*9*9?9?9?9?9?9?9*9?9*9*9?9*9,30.66,23.49,64.2,0,0,0,0,0,0.5,0,0,9999,9999,9,999999999,0,0.0,0,0,0.0,0.0
2026,7,21,22,35,?9?9?9?9E0?9?9?9*9*9?9?9?9?9?9?9*9?9*9*9?9*9,30.66,23.49,64.2,0,0,0,0,0,0.5,0,0,9999,9999,9,999999999,0,0.0,0,0,0.0,0.0
2026,7,21,22,36,?9?9?9?9E0?9?9?9*9*9?9?9?9?9?9?9*9?9*9*9?9*9,30.66,23.49,64.2,0,0,0,0,0,0.5,0,0,9999,9999,9,999999999,0,0.0,0,0,0.0,0.0
2026,7,21,22,37,?9?9?9?9E0?9?9?9*9*9?9?9?9?9?9?9*9?9*9*9?9*9,30.66,23.49,64.2,0,0,0,0,0,0.5,0,0,9999,9999,9,999999999,0,0.0,0,0,0.0,0.0
2026,7,21,22,38,?9?9?9?9E0?9?9?9*9*9?9?9?9?9?9?9*9?9*9*9?9*9,30.66,23.49,64.2,0,0,0,0,0,0.5,0,0,9999,9999,9,999999999,0,0.0,0,0,0.0,0.0
2026,7,21,22,39,?9?9?9?9E0?9?9?9*9*9?9?9?9?9?9?9*9?9*9*9?9*9,30.66,23.49,64.2,0,0,0,0,0,0.5,0,0,9999,9999,9,999999999,0,0.0,0,0,0.0,0.0
2026,7,21,22,40,?9?9?9?9E0?9?9?9*9*9?9?9?9?9?9?9*9?9*9*9?9*9,30.66,23.49,64.2,0,0,0,0,0,0.5,0,0,9999,9999,9,999999999,0,0.0,0,0,0.0,0.0
2026,7,21,22,41,?9?9?9?9E0?9?9?9*9*9?9?9?9?9?9?9*9?9*9*9?9*9,30.66,23.49,64.2,0,0,0,0,0,0.5,0,0,9999,9999,9,999999999,0,0.0,0,0,0.0,0.0
2026,7,21,22,42,?9?9?9?9E0?9?9?9*9*9?9?9?9?9?9?9*9?9*9*9?9*9,30.66,23.49,64.2,0,0,0,0,0,0.5,0,0,9999,9999,9,999999999,0,0.0,0,0,0.0,0.0
2026,7,21,22,43,?9?9?9?9E0?9?9?9*9*9?9?9?9?9?9?9*9?9*9*9?9*9,30.66,23.49,64.2,0,0,0,0,0,0.5,0,0,9999,9999,9,999999999,0,0.0,0,0,0.0,0.0
2026,7,21,22,44,?9?9?9?9E0?9?9?9*9*9?9?9?9?9?9?9*9?9*9*9?9*9,30.66,23.49,64.2,0,0,0,0,0,0.5,0,0,9999,9999,9,999999999,0,0.0,0,0,0.0,0.0
2026,7,21,22,45,?9?9?9?9E0?9?9?9*9*9?9?9?9?9?9?9*9?9*9*9?9*9,30.66,23.49,64.2,0,0,0,0,0,0.5,0,0,9999,9999,9,999999999,0,0.0,0,0,0.0,0.0
2026,7,21,22,46,?9?9?9?9E0?9?9?9*9*9?9?9?9?9?9?9*9?9*9*9?9*9,30.66,23.49,64.2,0,0,0,0,0,0.5,0,0,9999,9999,9,999999999,0,0.0,0,0,0.0,0.0
2026,7,21,22,47,?9?9?9?9E0?9?9?9*9*9?9?9?9?9?9?9*9?9*9*9?9*9,30.66,23.49,64.2,0,0,0,0,0,0.5,0,0,9999,9999,9,999999999,0,0.0,0,0,0.0,0.0
2026,7,21,22,48,?9?9?9?9E0?9?9?9*9*9?9?9?9?9?9?9*9?9*9*9?9*9,30.66,23.49,64.2,0,0,0,0,0,0.5,0,0,9999,9999,9,999999999,0,0.0,0,0,0.0,0.0
2026,7,21,22,49,?9?9?9?9E0?9?9?9*9*9?9?9?9?9?9?9*9?9*9*9?9*9,30.66,23.49,64.2,0,0,0,0,0,0.5,0,0,9999,9999,9,999999999,0,0.0,0,0,0.0,0.0
2026,7,21,22,50,?9?9?9?9E0?9?9?9*9*9?9?9?9?9?9?9*9?9*9*9?9*9,30.66,23.49,64.2,0,0,0,0,0,0.5,0,0,9999,9999,9,999999999,0,0.0,0,0,0.0,0.0
2026,7,21,22,51,?9?9?9?9E0?9?9?9*9*9?9?9?9?9?9?9*9?9*9*9?9*9,30.66,23.49,64.2,0,0,0,0,0,0.5,0,0,9999,9999,9,999999999,0,0.0,0,0,0.0,0.0
2026,7,21,22,52,?9?9?9?9E0?9?9?9*9*9?9?9?9?9?9?9*9?9*9*9?9*9,30.66,23.49,64.2,0,0,0,0,0,0.5,0,0,9999,9999,9,999999999,0,0.0,0,0,0.0,0.0
2026,7,21,22,53,?9?9?9?9E0?9?9?9*9*9?9?9?9?9?9?9*9?9*9*9?9*9,30.66,23.49,64.2,0,0,0,0,0,0.5,0,0,9999,9999,9,999999999,0,0.0,0,0,0.0,0.0
2026,7,21,22,54,?9?9?9?9E0?9?9?9*9*9?9?9?9?9?9?9*9?9*9*9?9*9,30.66,23.49,64.2,0,0,0,0,0,0.5,0,0,9999,9999,9,999999999,0,0.0,0,0,0.0,0.0
2026,7,21,22,55,?9?9?9?9E0?9?9?9*9*9?9?9?9?9?9?9*9?9*9*9?9*9,30.66,23.49,64.2,0,0,0,0,0,0.5,0,0,9999,9999,9,999999999,0,0.0,0,0,0.0,0.0
2026,7,21,22,56,?9?9?9?9E0?9?9?9*9*9?9?9?9?9?9?9*9?9*9*9?9*9,30.66,23.49,64.2,0,0,0,0,0,0.5,0,0,9999,9999,9,999999999,0,0.0,0,0,0.0,0.0
2026,7,21,22,57,?9?9?9?9E0?9?9?9*9*9?9?9?9?9?9?9*9?9*9*9?9*9,30.66,23.49,64.2,0,0,0,0,0,0.5,0,0,9999,9999,9,999999999,0,0.0,0,0,0.0,0.0
2026,7,21,22,58,?9?9?9?9E0?9?9?9*9*9?9?9?9?9?9?9*9?9*9*9?9*9,30.66,23.49,64.2,0,0,0,0,0,0.5,0,0,9999,9999,9,999999999,0,0.0,0,0,0.0,0.0
2026,7,21,22,59,?9?9?9?9E0?9?9?9*9*9?9?9?9?9?9?9*9?9*9*9?9*9,30.66,23.49,64.2,0,0,0,0,0,0.5,0,0,9999,9999,9,999999999,0,0.0,0,0,0.0,0.0
2026,7,21,22,60,?9?9?9?9E0?9?9?9*9*9?9?9?9?9?9?9*9?9*9*9?9*9,30.66,23.49,64.2,0,0,0,0,0,0.5,0,0,9999,9999,9,999999999,0,0.0,0,0,0.0,0.0
2026,7,21,23,1,?9?9?9?9E0?9?9?9*9*9?9?9?9?9?9?9*9?9*9*9?9*9,30.66,23.49,64.2,0,0,0,0,0,0.5,0,0,9999,9999,9,999999999,0,0.0,0,0,0.0,0.0
2026,7,21,23,2,?9?9?9?9E0?9?9?9*9*9?9?9?9?9?9?9*9?9*9*9?9*9,30.66,23.49,64.2,0,0,0,0,0,0.5,0,0,9999,9999,9,999999999,0,0.0,0,0,0.0,0.0
2026,7,21,23,3,?9?9?9?9E0?9?9?9*9*9?9?9?9?9?9?9*9?9*9*9?9*9,30.66,23.49,64.2,0,0,0,0,0,0.5,0,0,9999,9999,9,999999999,0,0.0,0,0,0.0,0.0
2026,7,21,23,4,?9?9?9?9E0?9?9?9*9*9?9?9?9?9?9?9*9?9*9*9?9*9,30.66,23.49,64.2,0,0,0,0,0,0.5,0,0,9999,9999,9,999999999,0,0.0,0,0,0.0,0.0
2026,7,21,23,5,?9?9?9?9E0?9?9?9*9*9?9?9?9?9?9?9*9?9*9*9?9*9,30.66,23.49,64.2,0,0,0,0,0,0.5,0,0,9999,9999,9,999999999,0,0.0,0,0,0.0,0.0
2026,7,21,23,6,?9?9?9?9E0?9?9?9*9*9?9?9?9?9?9?9*9?9*9*9?9*9,30.66,23.49,64.2,0,0,0,0,0,0.5,0,0,9999,9999,9,999999999,0,0.0,0,0,0.0,0.0
2026,7,21,23,7,?9?9?9?9E0?9?9?9*9*9?9?9?9?9?9?9*9?9*9*9?9*9,30.66,23.49,64.2,0,0,0,0,0,0.5,0,0,9999,9999,9,999999999,0,0.0,0,0,0.0,0.0
2026,7,21,23,8,?9?9?9?9E0?9?9?9*9*9?9?9?9?9?9?9*9?9*9*9?9*9,30.66,23.49,64.2,0,0,0,0,0,0.5,0,0,9999,9999,9,999999999,0,0.0,0,0,0.0,0.0
2026,7,21,23,9,?9?9?9?9E0?9?9?9*9*9?9?9?9?9?9?9*9?9*9*9?9*9,30.66,23.49,64.2,0,0,0,0,0,0.5,0,0,9999,9999,9,999999999,0,0.0,0,0,0.0,0.0
2026,7,21,23,10,?9?9?9?9E0?9?9?9*9*9?9?9?9?9?9?9*9?9*9*9?9*9,30.66,23.49,64.2,0,0,0,0,0,0.5,0,0,9999,9999,9,999999999,0,0.0,0,0,0.0,0.0
2026,7,21,23,11,?9?9?9?9E0?9?9?9*9*9?9?9?9?9?9?9*9?9*9*9?9*9,30.66,23.49,64.2,0,0,0,0,0,0.5,0,0,9999,9999,9,999999999,0,0.0,0,0,0.0,0.0
2026,7,21,23,12,?9?9?9?9E0?9?9?9*9*9?9?9?9?9?9?9*9?9*9*9?9*9,30.66,23.49,64.2,0,0,0,0,0,0.5,0,0,9999,9999,9,999999999,0,0.0,0,0,0.0,0.0
2026,7,21,23,13,?9?9?9?9E0?9?9?9*9*9?9?9?9?9?9?9*9?9*9*9?9*9,30.66,23.49,64.2,0,0,0,0,0,0.5,0,0,9999,9999,9,999999999,0,0.0,0,0,0.0,0.0
2026,7,21,23,14,?9?9?9?9E0?9?9?9*9*9?9?9?9?9?9?9*9?9*9*9?9*9,30.66,23.49,64.2,0,0,0,0,0,0.5,0,0,9999,9999,9,999999999,0,0.0,0,0,0.0,0.0
2026,7,21,23,15,?9?9?9?9E0?9?9?9*9*9?9?9?9?9?9?9*9?9*9*9?9*9,30.66,23.49,64.2,0,0,0,0,0,0.5,0,0,9999,9999,9,999999999,0,0.0,0,0,0.0,0.0
2026,7,21,23,16,?9?9?9?9E0?9?9?9*9*9?9?9?9?9?9?9*9?9*9*9?9*9,30.66,23.49,64.2,0,0,0,0,0,0.5,0,0,9999,9999,9,999999999,0,0.0,0,0,0.0,0.0
2026,7,21,23,17,?9?9?9?9E0?9?9?9*9*9?9?9?9?9?9?9*9?9*9*9?9*9,30.66,23.49,64.2,0,0,0,0,0,0.5,0,0,9999,9999,9,999999999,0,0.0,0,0,0.0,0.0
2026,7,21,23,18,?9?9?9?9E0?9?9?9*9*9?9?9?9?9?9?9*9?9*9*9?9*9,30.66,23.49,64.2,0,0,0,0,0,0.5,0,0,9999,9999,9,999999999,0,0.0,0,0,0.0,0.0
2026,7,21,23,19,?9?9?9?9E0?9?9?9*9*9?9?9?9?9?9?9*9?9*9*9?9*9,30.66,23.49,64.2,0,0,0,0,0,0.5,0,0,9999,9999,9,999999999,0,0.0,0,0,0.0,0.0
2026,7,21,23,20,?9?9?9?9E0?9?9?9*9*9?9?9?9?9?9?9*9?9*9*9?9*9,30.66,23.49,64.2,0,0,0,0,0,0.5,0,0,9999,9999,9,999999999,0,0.0,0,0,0.0,0.0
2026,7,21,23,21,?9?9?9?9E0?9?9?9*9*9?9?9?9?9?9?9*9?9*9*9?9*9,30.66,23.49,64.2,0,0,0,0,0,0.5,0,0,9999,9999,9,999999999,0,0.0,0,0,0.0,0.0
2026,7,21,23,22,?9?9?9?9E0?9?9?9*9*9?9?9?9?9?9?9*9?9*9*9?9*9,30.66,23.49,64.2,0,0,0,0,0,0.5,0,0,9999,9999,9,999999999,0,0.0,0,0,0.0,0.0
2026,7,21,23,23,?9?9?9?9E0?9?9?9*9*9?9?9?9?9?9?9*9?9*9*9?9*9,30.66,23.49,64.2,0,0,0,0,0,0.5,0,0,9999,9999,9,999999999,0,0.0,0,0,0.0,0.0
2026,7,21,23,24,?9?9?9?9E0?9?9?9*9*9?9?9?9?9?9?9*9?9*9*9?9*9,30.66,23.49,64.2,0,0,0,0,0,0.5,0,0,9999,9999,9,999999999,0,0.0,0,0,0.0,0.0
2026,7,21,23,25,?9?9?9?9E0?9?9?9*9*9?9?9?9?9?9?9*9?9*9*9?9*9,30.66,23.49,64.2,0,0,0,0,0,0.5,0,0,9999,9999,9,999999999,0,0.0,0,0,0.0,0.0
2026,7,21,23,26,?9?9?9?9E0?9?9?9*9*9?9?9?9?9?9?9*9?9*9*9?9*9,30.66,23.49,64.2,0,0,0,0,0,0.5,0,0,9999,9999,9,999999999,0,0.0,0,0,0.0,0.0
2026,7,21,23,27,?9?9?9?9E0?9?9?9*9*9?9?9?9?9?9?9*9?9*9*9?9*9,30.66,23.49,64.2,0,0,0,0,0,0.5,0,0,9999,9999,9,999999999,0,0.0,0,0,0.0,0.0
2026,7,21,23,28,?9?9?9?9E0?9?9?9*9*9?9?9?9?9?9?9*9?9*9*9?9*9,30.66,23.49,64.2,0,0,0,0,0,0.5,0,0,9999,9999,9,999999999,0,0.0,0,0,0.0,0.0
2026,7,21,23,29,?9?9?9?9E0?9?9?9*9*9?9?9?9?9?9?9*9?9*9*9?9*9,30.66,23.49,64.2,0,0,0,0,0,0.5,0,0,9999,9999,9,999999999,0,0.0,0,0,0.0,0.0
2026,7,21,23,30,?9?9?9?9E0?9?9?9*9*9?9?9?9?9?9?9*9?9*9*9?9*9,30.66,23.49,64.2,0,0,0,0,0,0.5,0,0,9999,9999,9,999999999,0,0.0,0,0,0.0,0.0
2026,7,21,23,31,?9?9?9?9E0?9?9?9*9*9?9?9?9?9?9?9*9?9*9*9?9*9,30.66,23.49,64.2,0,0,0,0,0,0.5,0,0,9999,9999,9,999999999,0,0.0,0,0,0.0,0.0
2026,7,21,23,32,?9?9?9?9E0?9?9?9*9*9?9?9?9?9?9?9*9?9*9*9?9*9,30.66,23.49,64.2,0,0,0,0,0,0.5,0,0,9999,9999,9,999999999,0,0.0,0,0,0.0,0.0
2026,7,21,23,33,?9?9?9?9E0?9?9?9*9*9?9?9?9?9?9?9*9?9*9*9?9*9,30.66,23.49,64.2,0,0,0,0,0,0.5,0,0,9999,9999,9,999999999,0,0.0,0,0,0.0,0.0
2026,7,21,23,34,?9?9?9?9E0?9?9?9*9*9?9?9?9?9?9?9*9?9*9*9?9*9,30.66,23.49,64.2,0,0,0,0,0,0.5,0,0,9999,9999,9,999999999,0,0.0,0,0,0.0,0.0
2026,7,21,23,35,?9?9?9?9E0?9?9?9*9*9?9?9?9?9?9?9*9?9*9*9?9*9,30.66,23.49,64.2,0,0,0,0,0,0.5,0,0,9999,9999,9,999999999,0,0.0,0,0,0.0,0.0
2026,7,21,23,36,?9?9?9?9E0?9?9?9*9*9?9?9?9?9?9?9*9?9*9*9?9*9,30.66,23.49,64.2,0,0,0,0,0,0.5,0,0,9999,9999,9,999999999,0,0.0,0,0,0.0,0.0
2026,7,21,23,37,?9?9?9?9E0?9?9?9*9*9?9?9?9?9?9?9*9?9*9*9?9*9,30.66,23.49,64.2,0,0,0,0,0,0.5,0,0,9999,9999,9,999999999,0,0.0,0,0,0.0,0.0
2026,7,21,23,38,?9?9?9?9E0?9?9?9*9*9?9?9?9?9?9?9*9?9*9*9?9*9,30.66,23.49,64.2,0,0,0,0,0,0.5,0,0,9999,9999,9,999999999,0,0.0,0,0,0.0,0.0
2026,7,21,23,39,?9?9?9?9E0?9?9?9*9*9?9?9?9?9?9?9*9?9*9*9?9*9,30.66,23.49,64.2,0,0,0,0,0,0.5,0,0,9999,9999,9,999999999,0,0.0,0,0,0.0,0.0
2026,7,21,23,40,?9?9?9?9E0?9?9?9*9*9?9?9?9?9?9?9*9?9*9*9?9*9,30.66,23.49,64.2,0,0,0,0,0,0.5,0,0,9999,9999,9,999999999,0,0.0,0,0,0.0,0.0
2026,7,21,23,41,?9?9?9?9E0?9?9?9*9*9?9?9?9?9?9?9*9?9*9*9?9*9,30.66,23.49,64.2,0,0,0,0,0,0.5,0,0,9999,9999,9,999999999,0,0.0,0,0,0.0,0.0
2026,7,21,23,42,?9?9?9?9E0?9?9?9*9*9?9?9?9?9?9?9*9?9*9*9?9*9,30.66,23.49,64.2,0,0,0,0,0,0.5,0,0,9999,9999,9,999999999,0,0.0,0,0,0.0,0.0
2026,7,21,23,43,?9?9?9?9E0?9?9?9*9*9?9?9?9?9?9?9*9?9*9*9?9*9,30.66,23.49,64.2,0,0,0,0,0,0.5,0,0,9999,9999,9,999999999,0,0.0,0,0,0.0,0.0
2026,7,21,23,44,?9?9?9?9E0?9?9?9*9*9?9?9?9?9?9?9*9?9*9*9?9*9,30.66,23.49,64.2,0,0,0,0,0,0.5,0,0,9999,9999,9,999999999,0,0.0,0,0,0.0,0.0
2026,7,21,23,45,?9?9?9?9E0?9?9?9*9*9?9?9?9?9?9?9*9?9*9*9?9*9,30.66,23.49,64.2,0,0,0,0,0,0.5,0,0,9999,9999,9,999999999,0,0.0,0,0,0.0,0.0
2026,7,21,23,46,?9?9?9?9E0?9?9?9*9*9?9?9?9?9?9?9*9?9*9*9?9*9,30.66,23.49,64.2,0,0,0,0,0,0.5,0,0,9999,9999,9,999999999,0,0.0,0,0,0.0,0.0
2026,7,21,23,47,?9?9?9?9E0?9?9?9*9*9?9?9?9?9?9?9*9?9*9*9?9*9,30.66,23.49,64.2,0,0,0,0,0,0.5,0,0,9999,9999,9,999999999,0,0.0,0,0,0.0,0.0
2026,7,21,23,48,?9?9?9?9E0?9?9?9*9*9?9?9?9?9?9?9*9?9*9*9?9*9,30.66,23.49,64.2,0,0,0,0,0,0.5,0,0,9999,9999,9,999999999,0,0.0,0,0,0.0,0.0
2026,7,21,23,49,?9?9?9?9E0?9?9?9*9*9?9?9?9?9?9?9*9?9*9*9?9*9,30.66,23.49,64.2,0,0,0,0,0,0.5,0,0,9999,9999,9,999999999,0,0.0,0,0,0.0,0.0
2026,7,21,23,50,?9?9?9?9E0?9?9?9*9*9?9?9?9?9?9?9*9?9*9*9?9*9,30.66,23.49,64.2,0,0,0,0,0,0.5,0,0,9999,9999,9,999999999,0,0.0,0,0,0.0,0.0
2026,7,21,23,51,?9?9?9?9E0?9?9?9*9*9?9?9?9?9?9?9*9?9*9*9?9*9,30.66,23.49,64.2,0,0,0,0,0,0.5,0,0,9999,9999,9,999999999,0,0.0,0,0,0.0,0.0
2026,7,21,23,52,?9?9?9?9E0?9?9?9*9*9?9?9?9?9?9?9*9?9*9*9?9*9,30.66,23.49,64.2,0,0,0,0,0,0.5,0,0,9999,9999,9,999999999,0,0.0,0,0,0.0,0.0
2026,7,21,23,53,?9?9?9?9E0?9?9?9*9*9?9?9?9?9?9?9*9?9*9*9?9*9,30.66,23.49,64.2,0,0,0,0,0,0.5,0,0,9999,9999,9,999999999,0,0.0,0,0,0.0,0.0
2026,7,21,23,54,?9?9?9?9E0?9?9?9*9*9?9?9?9?9?9?9*9?9*9*9?9*9,30.66,23.49,64.2,0,0,0,0,0,0.5,0,0,9999,9999,9,999999999,0,0.0,0,0,0.0,0.0
2026,7,21,23,55,?9?9?9?9E0?9?9?9*9*9?9?9?9?9?9?9*9?9*9*9?9*9,30.66,23.49,64.2,0,0,0,0,0,0.5,0,0,9999,9999,9,999999999,0,0.0,0,0,0.0,0.0
2026,7,21,23,56,?9?9?9?9E0?9?9?9*9*9?9?9?9?9?9?9*9?9*9*9?9*9,30.66,23.49,64.2,0,0,0,0,0,0.5,0,0,9999,9999,9,999999999,0,0.0,0,0,0.0,0.0
2026,7,21,23,57,?9?9?9?9E0?9?9?9*9*9?9?9?9?9?9?9*9?9*9*9?9*9,30.66,23.49,64.2,0,0,0,0,0,0.5,0,0,9999,9999,9,999999999,0,0.0,0,0,0.0,0.0
2026,7,21,23,58,?9?9?9?9E0?9?9?9*9*9?9?9?9?9?9?9*9?9*9*9?9*9,30.66,23.49,64.2,0,0,0,0,0,0.5,0,0,9999,9999,9,999999999,0,0.0,0,0,0.0,0.0
2026,7,21,23,59,?9?9?9?9E0?9?9?9*9*9?9?9?9?9?9?9*9?9*9*9?9*9,30.66,23.49,64.2,0,0,0,0,0,0.5,0,0,9999,9999,9,999999999,0,0.0,0,0,0.0,0.0
2026,7,21,23,60,?9?9?9?9E0?9?9?9*9*9?9?9?9?9?9?9*9?9*9*9?9*9,30.66,23.49,64.2,0,0,0,0,0,0.5,0,0,9999,9999,9,999999999,0,0.0,0,0,0.0,0.0
2026,7,21,24,1,?9?9?9?9E0?9?9?9*9*9?9?9?9?9?9?9*9?9*9*9?9*9,30.66,23.49,64.2,0,0,0,0,0,0.5,0,0,9999,9999,9,999999999,0,0.0,0,0,0.0,0.0
2026,7,21,24,2,?9?9?9?9E0?9?9?9*9*9?9?9?9?9?9?9*9?9*9*9?9*9,30.66,23.49,64.2,0,0,0,0,0,0.5,0,0,9999,9999,9,999999999,0,0.0,0,0,0.0,0.0
2026,7,21,24,3,?9?9?9?9E0?9?9?9*9*9?9?9?9?9?9?9*9?9*9*9?9*9,30.66,23.49,64.2,0,0,0,0,0,0.5,0,0,9999,9999,9,999999999,0,0.0,0,0,0.0,0.0
2026,7,21,24,4,?9?9?9?9E0?9?9?9*9*9?9?9?9?9?9?9*9?9*9*9?9*9,30.66,23.49,64.2,0,0,0,0,0,0.5,0,0,9999,9999,9,999999999,0,0.0,0,0,0.0,0.0
2026,7,21,24,5,?9?9?9?9E0?9?9?9*9*9?9?9?9?9?9?9*9?9*9*9?9*9,30.66,23.49,64.2,0,0,0,0,0,0.5,0,0,9999,9999,9,999999999,0,0.0,0,0,0.0,0.0
2026,7,21,24,6,?9?9?9?9E0?9?9?9*9*9?9?9?9?9?9?9*9?9*9*9?9*9,30.66,23.49,64.2,0,0,0,0,0,0.5,0,0,9999,9999,9,999999999,0,0.0,0,0,0.0,0.0
2026,7,21,24,7,?9?9?9?9E0?9?9?9*9*9?9?9?9?9?9?9*9?9*9*9?9*9,30.66,23.49,64.2,0,0,0,0,0,0.5,0,0,9999,9999,9,999999999,0,0.0,0,0,0.0,0.0
2026,7,21,24,8,?9?9?9?9E0?9?9?9*9*9?9?9?9?9?9?9*9?9*9*9?9*9,30.66,23.49,64.2,0,0,0,0,0,0.5,0,0,9999,9999,9,999999999,0,0.0,0,0,0.0,0.0
2026,7,21,24,9,?9?9?9?9E0?9?9?9*9*9?9?9?9?9?9?9*9?9*9*9?9*9,30.66,23.49,64.2,0,0,0,0,0,0.5,0,0,9999,9999,9,999999999,0,0.0,0,0,0.0,0.0
2026,7,21,24,10,?9?9?9?9E0?9?9?9*9*9?9?9?9?9?9?9*9?9*9*9?9*9,30.66,23.49,64.2,0,0,0,0,0,0.5,0,0,9999,9999,9,999999999,0,0.0,0,0,0.0,0.0
2026,7,21,24,11,?9?9?9?9E0?9?9?9*9*9?9?9?9?9?9?9*9?9*9*9?9*9,30.66,23.49,64.2,0,0,0,0,0,0.5,0,0,9999,9999,9,999999999,0,0.0,0,0,0.0,0.0
2026,7,21,24,12,?9?9?9?9E0?9?9?9*9*9?9?9?9?9?9?9*9?9*9*9?9*9,30.66,23.49,64.2,0,0,0,0,0,0.5,0,0,9999,9999,9,999999999,0,0.0,0,0,0.0,0.0
2026,7,21,24,13,?9?9?9?9E0?9?9?9*9*9?9?9?9?9?9?9*9?9*9*9?9*9,30.66,23.49,64.2,0,0,0,0,0,0.5,0,0,9999,9999,9,999999999,0,0.0,0,0,0.0,0.0
2026,7,21,24,14,?9?9?9?9E0?9?9?9*9*9?9?9?9?9?9?9*9?9*9*9?9*9,30.66,23.49,64.2,0,0,0,0,0,0.5,0,0,9999,9999,9,999999999,0,0.0,0,0,0.0,0.0
2026,7,21,24,15,?9?9?9?9E0?9?9?9*9*9?9?9?9?9?9?9*9?9*9*9?9*9,30.66,23.49,64.2,0,0,0,0,0,0.5,0,0,9999,9999,9,999999999,0,0.0,0,0,0.0,0.0
2026,7,21,24,16,?9?9?9?9E0?9?9?9*9*9?9?9?9?9?9?9*9?9*9*9?9*9,30.66,23.49,64.2,0,0,0,0,0,0.5,0,0,9999,9999,9,999999999,0,0.0,0,0,0.0,0.0
2026,7,21,24,17,?9?9?9?9E0?9?9?9*9*9?9?9?9?9?9?9*9?9*9*9?9*9,30.66,23.49,64.2,0,0,0,0,0,0.5,0,0,9999,9999,9,999999999,0,0.0,0,0,0.0,0.0
2026,7,21,24,18,?9?9?9?9E0?9?9?9*9*9?9?9?9?9?9?9*9?9*9*9?9*9,30.66,23.49,64.2,0,0,0,0,0,0.5,0,0,9999,9999,9,999999999,0,0.0,0,0,0.0,0.0
2026,7,21,24,19,?9?9?9?9E0?9?9?9*9*9?9?9?9?9?9?9*9?9*9*9?9*9,30.66,23.49,64.2,0,0,0,0,0,0.5,0,0,9999,9999,9,999999999,0,0.0,0,0,0.0,0.0
2026,7,21,24,20,?9?9?9?9E0?9?9?9*9*9?9?9?9?9?9?9*9?9*9*9?9*9,30.66,23.49,64.2,0,0,0,0,0,0.5,0,0,9999,9999,9,999999999,0,0.0,0,0,0.0,0.0
2026,7,21,24,21,?9?9?9?9E0?9?9?9*9*9?9?9?9?9?9?9*9?9*9*9?9*9,30.66,23.49,64.2,0,0,0,0,0,0.5,0,0,9999,9999,9,999999999,0,0.0,0,0,0.0,0.0
2026,7,21,24,22,?9?9?9?9E0?9?9?9*9*9?9?9?9?9?9?9*9?9*9*9?9*9,30.66,23.49,64.2,0,0,0,0,0,0.5,0,0,9999,9999,9,999999999,0,0.0,0,0,0.0,0.0
2026,7,21,24,23,?9?9?9?9E0?9?9?9*9*9?9?9?9?9?9?9*9?9*9*9?9*9,30.66,23.49,64.2,0,0,0,0,0,0.5,0,0,9999,9999,9,999999999,0,0.0,0,0,0.0,0.0
2026,7,21,24,24,?9?9?9?9E0?9?9?9*9*9?9?9?9?9?9?9*9?9*9*9?9*9,30.66,23.49,64.2,0,0,0,0,0,0.5,0,0,9999,9999,9,999999999,0,0.0,0,0,0.0,0.0
2026,7,21,24,25,?9?9?9?9E0?9?9?9*9*9?9?9?9?9?9?9*9?9*9*9?9*9,30.66,23.49,64.2,0,0,0,0,0,0.5,0,0,9999,9999,9,999999999,0,0.0,0,0,0.0,0.0
2026,7,21,24,26,?9?9?9?9E0?9?9?9*9*9?9?9?9?9?9?9*9?9*9*9?9*9,30.66,23.49,64.2,0,0,0,0,0,0.5,0,0,9999,9999,9,999999999,0,0.0,0,0,0.0,0.0
2026,7,21,24,27,?9?9?9?9E0?9?9?9*9*9?9?9?9?9?9?9*9?9*9*9?9*9,30.66,23.49,64.2,0,0,0,0,0,0.5,0,0,9999,9999,9,999999999,0,0.0,0,0,0.0,0.0
2026,7,21,24,28,?9?9?9?9E0?9?9?9*9*9?9?9?9?9?9?9*9?9*9*9?9*9,30.66,23.49,64.2,0,0,0,0,0,0.5,0,0,9999,9999,9,999999999,0,0.0,0,0,0.0,0.0
2026,7,21,24,29,?9?9?9?9E0?9?9?9*9*9?9?9?9?9?9?9*9?9*9*9?9*9,30.66,23.49,64.2,0,0,0,0,0,0.5,0,0,9999,9999,9,999999999,0,0.0,0,0,0.0,0.0
2026,7,21,24,30,?9?9?9?9E0?9?9?9*9*9?9?9?9?9?9?9*9?9*9*9?9*9,30.66,23.49,64.2,0,0,0,0,0,0.5,0,0,9999,9999,9,999999999,0,0.0,0,0,0.0,0.0
2026,7,21,24,31,?9?9?9?9E0?9?9?9*9*9?9?9?9?9?9?9*9?9*9*9?9*9,30.66,23.49,64.2,0,0,0,0,0,0.5,0,0,9999,9999,9,999999999,0,0.0,0,0,0.0,0.0
2026,7,21,24,32,?9?9?9?9E0?9?9?9*9*9?9?9?9?9?9?9*9?9*9*9?9*9,30.66,23.49,64.2,0,0,0,0,0,0.5,0,0,9999,9999,9,999999999,0,0.0,0,0,0.0,0.0
2026,7,21,24,33,?9?9?9?9E0?9?9?9*9*9?9?9?9?9?9?9*9?9*9*9?9*9,30.66,23.49,64.2,0,0,0,0,0,0.5,0,0,9999,9999,9,999999999,0,0.0,0,0,0.0,0.0
2026,7,21,24,34,?9?9?9?9E0?9?9?9*9*9?9?9?9?9?9?9*9?9*9*9?9*9,30.66,23.49,64.2,0,0,0,0,0,0.5,0,0,9999,9999,9,999999999,0,0.0,0,0,0.0,0.0
2026,7,21,24,35,?9?9?9?9E0?9?9?9*9*9?9?9?9?9?9?9*9?9*9*9?9*9,30.66,23.49,64.2,0,0,0,0,0,0.5,0,0,9999,9999,9,999999999,0,0.0,0,0,0.0,0.0
2026,7,21,24,36,?9?9?9?9E0?9?9?9*9*9?9?9?9?9?9?9*9?9*9*9?9*9,30.66,23.49,64.2,0,0,0,0,0,0.5,0,0,9999,9999,9,999999999,0,0.0,0,0,0.0,0.0
2026,7,21,24,37,?9?9?9?9E0?9?9?9*9*9?9?9?9?9?9?9*9?9*9*9?9*9,30.66,23.49,64.2,0,0,0,0,0,0.5,0,0,9999,9999,9,999999999,0,0.0,0,0,0.0,0.0
2026,7,21,24,38,?9?9?9?9E0?9?9?9*9*9?9?9?9?9?9?9*9?9*9*9?9*9,30.66,23.49,64.2,0,0,0,0,0,0.5,0,0,9999,9999,9,999999999,0,0.0,0,0,0.0,0.0
2026,7,21,24,39,?9?9?9?9E0?9?9?9*9*9?9?9?9?9?9?9*9?9*9*9?9*9,30.66,23.49,64.2,0,0,0,0,0,0.5,0,0,9999,9999,9,999999999,0,0.0,0,0,0.0,0.0
2026,7,21,24,40,?9?9?9?9E0?9?9?9*9*9?9?9?9?9?9?9*9?9*9*9?9*9,30.66,23.49,64.2,0,0,0,0,0,0.5,0,0,9999,9999,9,999999999,0,0.0,0,0,0.0,0.0
2026,7,21,24,41,?9?9?9?9E0?9?9?9*9*9?9?9?9?9?9?9*9?9*9*9?9*9,30.66,23.49,64.2,0,0,0,0,0,0.5,0,0,9999,9999,9,999999999,0,0.0,0,0,0.0,0.0
2026,7,21,24,42,?9?9?9?9E0?9?9?9*9*9?9?9?9?9?9?9*9?9*9*9?9*9,30.66,23.49,64.2,0,0,0,0,0,0.5,0,0,9999,9999,9,999999999,0,0.0,0,0,0.0,0.0
2026,7,21,24,43,?9?9?9?9E0?9?9?9*9*9?9?9?9?9?9?9*9?9*9*9?9*9,30.66,23.49,64.2,0,0,0,0,0,0.5,0,0,9999,9999,9,999999999,0,0.0,0,0,0.0,0.0
2026,7,21,24,44,?9?9?9?9E0?9?9?9*9*9?9?9?9?9?9?9*9?9*9*9?9*9,30.66,23.49,64.2,0,0,0,0,0,0.5,0,0,9999,9999,9,999999999,0,0.0,0,0,0.0,0.0
2026,7,21,24,45,?9?9?9?9E0?9?9?9*9*9?9?9?9?9?9?9*9?9*9*9?9*9,30.66,23.49,64.2,0,0,0,0,0,0.5,0,0,9999,9999,9,999999999,0,0.0,0,0,0.0,0.0
2026,7,21,24,46,?9?9?9?9E0?9?9?9*9*9?9?9?9?9?9?9*9?9*9*9?9*9,30.66,23.49,64.2,0,0,0,0,0,0.5,0,0,9999,9999,9,999999999,0,0.0,0,0,0.0,0.0
2026,7,21,24,47,?9?9?9?9E0?9?9?9*9*9?9?9?9?9?9?9*9?9*9*9?9*9,30.66,23.49,64.2,0,0,0,0,0,0.5,0,0,9999,9999,9,999999999,0,0.0,0,0,0.0,0.0
2026,7,21,24,48,?9?9?9?9E0?9?9?9*9*9?9?9?9?9?9?9*9?9*9*9?9*9,30.66,23.49,64.2,0,0,0,0,0,0.5,0,0,9999,9999,9,999999999,0,0.0,0,0,0.0,0.0
2026,7,21,24,49,?9?9?9?9E0?9?9?9*9*9?9?9?9?9?9?9*9?9*9*9?9*9,30.66,23.49,64.2,0,0,0,0,0,0.5,0,0,9999,9999,9,999999999,0,0.0,0,0,0.0,0.0
2026,7,21,24,50,?9?9?9?9E0?9?9?9*9*9?9?9?9?9?9?9*9?9*9*9?9*9,30.66,23.49,64.2,0,0,0,0,0,0.5,0,0,9999,9999,9,999999999,0,0.0,0,0,0.0,0.0
2026,7,21,24,51,?9?9?9?9E0?9?9?9*9*9?9?9?9?9?9?9*9?9*9*9?9*9,30.66,23.49,64.2,0,0,0,0,0,0.5,0,0,9999,9999,9,999999999,0,0.0,0,0,0.0,0.0
2026,7,21,24,52,?9?9?9?9E0?9?9?9*9*9?9?9?9?9?9?9*9?9*9*9?9*9,30.66,23.49,64.2,0,0,0,0,0,0.5,0,0,9999,9999,9,999999999,0,0.0,0,0,0.0,0.0
2026,7,21,24,53,?9?9?9?9E0?9?9?9*9*9?9?9?9?9?9?9*9?9*9*9?9*9,30.66,23.49,64.2,0,0,0,0,0,0.5,0,0,9999,9999,9,999999999,0,0.0,0,0,0.0,0.0
2026,7,21,24,54,?9?9?9?9E0?9?9?9*9*9?9?9?9?9?9?9*9?9*9*9?9*9,30.66,23.49,64.2,0,0,0,0,0,0.5,0,0,9999,9999,9,999999999,0,0.0,0,0,0.0,0.0
2026,7,21,24,55,?9?9?9?9E0?9?9?9*9*9?9?9?9?9?9?9*9?9*9*9?9*9,30.66,23.49,64.2,0,0,0,0,0,0.5,0,0,9999,9999,9,999999999,0,0.0,0,0,0.0,0.0
2026,7,21,24,56,?9?9?9?9E0?9?9?9*9*9?9?9?9?9?9?9*9?9*9*9?9*9,30.66,23.49,64.2,0,0,0,0,0,0.5,0,0,9999,9999,9,999999999,0,0.0,0,0,0.0,0.0
2026,7,21,24,57,?9?9?9?9E0?9?9?9*9*9?9?9?9?9?9?9*9?9*9*9?9*9,30.66,23.49,64.2,0,0,0,0,0,0.5,0,0,9999,9999,9,999999999,0,0.0,0,0,0.0,0.0
2026,7,21,24,58,?9?9?9?9E0?9?9?9*9*9?9?9?9?9?9?9*9?9*9*9?9*9,30.66,23.49,64.2,0,0,0,0,0,0.5,0,0,9999,9999,9,999999999,0,0.0,0,0,0.0,0.0
2026,7,21,24,59,?9?9?9?9E0?9?9?9*9*9?9?9?9?9?9?9*9?9*9*9?9*9,30.66,23.49,64.2,0,0,0,0,0,0.5,0,0,9999,9999,9,999999999,0,0.0,0,0,0.0,0.0
2026,7,21,24,60,?9?9?9?9E0?9?9?9*9*9?9?9?9?9?9?9*9?9*9*9?9*9,30.66,23.49,64.2,0,0,0,0,0,0.5,0,0,9999,9999,9,999999999,0,0.0,0,0,0.0,0.0
