LOCATION,Kandy,CP,LKA,SRC-TMYx,434440,7.33440,80.62660,5.5,477.0
DESIGN CONDITIONS,1,2025 ASHRAE Handbook -- Fundamentals - Chapter 14 Climatic Design Information,Heating,1,17.5,18.7,14.9,11.2,23.4,16.1,12.1,22.8,3.8,26.3,3.3,26.5,0.1,50,0.193,Cooling,4,8.8,32.2,23.5,31.5,23.7,30.8,23.8,25.5,29.8,25.1,29.3,24.8,28.8,1.3,140,24.2,20.3,27.4,23.9,19.9,27.1,23.6,19.6,26.8,81.1,30.1,79.5,29.5,78.3,29.2,27.5,Extremes,4.1,3.3,2.7,14.9,35.0,1.0,1.9,14.2,36.3,13.6,37.4,13.0,38.5,12.3,39.8,14.4,26.6,0.9,0.4,13.8,26.8,13.3,27.1,12.8,27.3,12.1,27.6
TYPICAL/EXTREME PERIODS,3,No Dry Season - Week Near Average Annual,Typical,7/23,7/29,No Dry Season - Week Near Annual Max,Extreme,4/23,4/29,No Dry Season - Week Near Annual Min,Extreme,1/15,1/21
GROUND TEMPERATURES,3,.5,,,,24.15,23.87,23.79,23.85,24.24,24.67,25.08,25.38,25.46,25.32,24.99,24.57,2,,,,24.41,24.14,24.01,24.01,24.21,24.51,24.83,25.10,25.24,25.22,25.03,24.74,4,,,,24.58,24.37,24.24,24.20,24.28,24.45,24.66,24.87,25.02,25.05,24.97,24.80
HOLIDAYS/DAYLIGHT SAVINGS,No,0,0,0
COMMENTS 1,"NCEI ISD/ERA5 - #years=[15] Period of Record=2011-2025; Jan=2019; Feb=2018; Mar=2025; Apr=2021; May=2015; Jun=2016; Jul=2016; Aug=2020; Sep=2014; Oct=2024; Nov=2012; Dec=2020"
COMMENTS 2,"Downloaded from Climate.Onebuilding.org -- Ground temps represent undisturbed earth temperatures - calculated from this weather data."
DATA PERIODS,1,60,Data,Sunday,7/21,7/21
2016,7,21,1,1,?9?9?9?9E0?9?9?9*9*9?9?9?9?9?9?9*9?9*9*9?9*9,22.20,21.50,96,95725,0,0,385,0,0,0,0,0,0,0,208,0.0,10,10,8333.0,282,9,999999999,79,0.2200,0,88,0.160,0.0,0.0
2016,7,21,1,2,?9?9?9?9E0?9?9?9*9*9?9?9?9?9?9?9*9?9*9*9?9*9,22.20,21.50,96,95725,0,0,385,0,0,0,0,0,0,0,208,0.0,10,10,8333.0,282,9,999999999,79,0.2200,0,88,0.160,0.0,0.0
2016,7,21,1,3,?9?9?9?9E0?9?9?9*9*9?9?9?9?9?9?9*9?9*9*9?9*9,22.20,21.50,96,95725,0,0,385,0,0,0,0,0,0,0,208,0.0,10,10,8333.0,282,9,999999999,79,0.2200,0,88,0.160,0.0,0.0
2016,7,21,1,4,?9?9?9?9E0?9?9?9*9*9?9?9?9?9?9?9*9?9*9*9?9*9,22.20,21.50,96,95725,0,0,385,0,0,0,0,0,0,0,208,0.0,10,10,8333.0,282,9,999999999,79,0.2200,0,88,0.160,0.0,0.0
2016,7,21,1,5,?9?9?9?9E0?9?9?9*9*9?9?9?9?9?9?9*9?9*9*9?9*9,22.20,21.50,96,95725,0,0,385,0,0,0,0,0,0,0,208,0.0,10,10,8333.0,282,9,999999999,79,0.2200,0,88,0.160,0.0,0.0
2016,7,21,1,6,?9?9?9?9E0?9?9?9*9*9?9?9?9?9?9?9*9?9*9*9?9*9,22.20,21.50,96,95725,0,0,385,0,0,0,0,0,0,0,208,0.0,10,10,8333.0,282,9,999999999,79,0.2200,0,88,0.160,0.0,0.0
2016,7,21,1,7,?9?9?9?9E0?9?9?9*9*9?9?9?9?9?9?9*9?9*9*9?9*9,22.20,21.50,96,95725,0,0,385,0,0,0,0,0,0,0,208,0.0,10,10,8333.0,282,9,999999999,79,0.2200,0,88,0.160,0.0,0.0
2016,7,21,1,8,?9?9?9?9E0?9?9?9*9*9?9?9?9?9?9?9*9?9*9*9?9*9,22.20,21.50,96,95725,0,0,385,0,0,0,0,0,0,0,208,0.0,10,10,8333.0,282,9,999999999,79,0.2200,0,88,0.160,0.0,0.0
2016,7,21,1,9,?9?9?9?9E0?9?9?9*9*9?9?9?9?9?9?9*9?9*9*9?9*9,22.20,21.50,96,95725,0,0,385,0,0,0,0,0,0,0,208,0.0,10,10,8333.0,282,9,999999999,79,0.2200,0,88,0.160,0.0,0.0
2016,7,21,1,10,?9?9?9?9E0?9?9?9*9*9?9?9?9?9?9?9*9?9*9*9?9*9,22.20,21.50,96,95725,0,0,385,0,0,0,0,0,0,0,208,0.0,10,10,8333.0,282,9,999999999,79,0.2200,0,88,0.160,0.0,0.0
2016,7,21,1,11,?9?9?9?9E0?9?9?9*9*9?9?9?9?9?9?9*9?9*9*9?9*9,22.20,21.50,96,95725,0,0,385,0,0,0,0,0,0,0,208,0.0,10,10,8333.0,282,9,999999999,79,0.2200,0,88,0.160,0.0,0.0
2016,7,21,1,12,?9?9?9?9E0?9?9?9*9*9?9?9?9?9?9?9*9?9*9*9?9*9,22.20,21.50,96,95725,0,0,385,0,0,0,0,0,0,0,208,0.0,10,10,8333.0,282,9,999999999,79,0.2200,0,88,0.160,0.0,0.0
2016,7,21,1,13,?9?9?9?9E0?9?9?9*9*9?9?9?9?9?9?9*9?9*9*9?9*9,22.20,21.50,96,95725,0,0,385,0,0,0,0,0,0,0,208,0.0,10,10,8333.0,282,9,999999999,79,0.2200,0,88,0.160,0.0,0.0
2016,7,21,1,14,?9?9?9?9E0?9?9?9*9*9?9?9?9?9?9?9*9?9*9*9?9*9,22.20,21.50,96,95725,0,0,385,0,0,0,0,0,0,0,208,0.0,10,10,8333.0,282,9,999999999,79,0.2200,0,88,0.160,0.0,0.0
2016,7,21,1,15,?9?9?9?9E0?9?9?9*9*9?9?9?9?9?9?9*9?9*9*9?9*9,22.20,21.50,96,95725,0,0,385,0,0,0,0,0,0,0,208,0.0,10,10,8333.0,282,9,999999999,79,0.2200,0,88,0.160,0.0,0.0
2016,7,21,1,16,?9?9?9?9E0?9?9?9*9*9?9?9?9?9?9?9*9?9*9*9?9*9,22.20,21.50,96,95725,0,0,385,0,0,0,0,0,0,0,208,0.0,10,10,8333.0,282,9,999999999,79,0.2200,0,88,0.160,0.0,0.0
2016,7,21,1,17,?9?9?9?9E0?9?9?9*9*9?9?9?9?9?9?9*9?9*9*9?9*9,22.20,21.50,96,95725,0,0,385,0,0,0,0,0,0,0,208,0.0,10,10,8333.0,282,9,999999999,79,0.2200,0,88,0.160,0.0,0.0
2016,7,21,1,18,?9?9?9?9E0?9?9?9*9*9?9?9?9?9?9?9*9?9*9*9?9*9,22.20,21.50,96,95725,0,0,385,0,0,0,0,0,0,0,208,0.0,10,10,8333.0,282,9,999999999,79,0.2200,0,88,0.160,0.0,0.0
2016,7,21,1,19,?9?9?9?9E0?9?9?9*9*9?9?9?9?9?9?9*9?9*9*9?9*9,22.20,21.50,96,95725,0,0,385,0,0,0,0,0,0,0,208,0.0,10,10,8333.0,282,9,999999999,79,0.2200,0,88,0.160,0.0,0.0
2016,7,21,1,20,?9?9?9?9E0?9?9?9*9*9?9?9?9?9?9?9*9?9*9*9?9*9,22.20,21.50,96,95725,0,0,385,0,0,0,0,0,0,0,208,0.0,10,10,8333.0,282,9,999999999,79,0.2200,0,88,0.160,0.0,0.0
2016,7,21,1,21,?9?9?9?9E0?9?9?9*9*9?9?9?9?9?9?9*9?9*9*9?9*9,22.20,21.50,96,95725,0,0,385,0,0,0,0,0,0,0,208,0.0,10,10,8333.0,282,9,999999999,79,0.2200,0,88,0.160,0.0,0.0
2016,7,21,1,22,?9?9?9?9E0?9?9?9*9*9?9?9?9?9?9?9*9?9*9*9?9*9,22.20,21.50,96,95725,0,0,385,0,0,0,0,0,0,0,208,0.0,10,10,8333.0,282,9,999999999,79,0.2200,0,88,0.160,0.0,0.0
2016,7,21,1,23,?9?9?9?9E0?9?9?9*9*9?9?9?9?9?9?9*9?9*9*9?9*9,22.20,21.50,96,95725,0,0,385,0,0,0,0,0,0,0,208,0.0,10,10,8333.0,282,9,999999999,79,0.2200,0,88,0.160,0.0,0.0
2016,7,21,1,24,?9?9?9?9E0?9?9?9*9*9?9?9?9?9?9?9*9?9*9*9?9*9,22.20,21.50,96,95725,0,0,385,0,0,0,0,0,0,0,208,0.0,10,10,8333.0,282,9,999999999,79,0.2200,0,88,0.160,0.0,0.0
2016,7,21,1,25,?9?9?9?9E0?9?9?9*9*9?9?9?9?9?9?9*9?9*9*9?9*9,22.20,21.50,96,95725,0,0,385,0,0,0,0,0,0,0,208,0.0,10,10,8333.0,282,9,999999999,79,0.2200,0,88,0.160,0.0,0.0
2016,7,21,1,26,?9?9?9?9E0?9?9?9*9*9?9?9?9?9?9?9*9?9*9*9?9*9,22.20,21.50,96,95725,0,0,385,0,0,0,0,0,0,0,208,0.0,10,10,8333.0,282,9,999999999,79,0.2200,0,88,0.160,0.0,0.0
2016,7,21,1,27,?9?9?9?9E0?9?9?9*9*9?9?9?9?9?9?9*9?9*9*9?9*9,22.20,21.50,96,95725,0,0,385,0,0,0,0,0,0,0,208,0.0,10,10,8333.0,282,9,999999999,79,0.2200,0,88,0.160,0.0,0.0
2016,7,21,1,28,?9?9?9?9E0?9?9?9*9*9?9?9?9?9?9?9*9?9*9*9?9*9,22.20,21.50,96,95725,0,0,385,0,0,0,0,0,0,0,208,0.0,10,10,8333.0,282,9,999999999,79,0.2200,0,88,0.160,0.0,0.0
2016,7,21,1,29,?9?9?9?9E0?9?9?9*9*9?9?9?9?9?9?9*9?9*9*9?9*9,22.20,21.50,96,95725,0,0,385,0,0,0,0,0,0,0,208,0.0,10,10,8333.0,282,9,999999999,79,0.2200,0,88,0.160,0.0,0.0
2016,7,21,1,30,?9?9?9?9E0?9?9?9*9*9?9?9?9?9?9?9*9?9*9*9?9*9,22.20,21.50,96,95725,0,0,385,0,0,0,0,0,0,0,208,0.0,10,10,8333.0,282,9,999999999,79,0.2200,0,88,0.160,0.0,0.0
2016,7,21,1,31,?9?9?9?9E0?9?9?9*9*9?9?9?9?9?9?9*9?9*9*9?9*9,22.20,21.50,96,95725,0,0,385,0,0,0,0,0,0,0,208,0.0,10,10,8333.0,282,9,999999999,79,0.2200,0,88,0.160,0.0,0.0
2016,7,21,1,32,?9?9?9?9E0?9?9?9*9*9?9?9?9?9?9?9*9?9*9*9?9*9,22.20,21.50,96,95725,0,0,385,0,0,0,0,0,0,0,208,0.0,10,10,8333.0,282,9,999999999,79,0.2200,0,88,0.160,0.0,0.0
2016,7,21,1,33,?9?9?9?9E0?9?9?9*9*9?9?9?9?9?9?9*9?9*9*9?9*9,22.20,21.50,96,95725,0,0,385,0,0,0,0,0,0,0,208,0.0,10,10,8333.0,282,9,999999999,79,0.2200,0,88,0.160,0.0,0.0
2016,7,21,1,34,?9?9?9?9E0?9?9?9*9*9?9?9?9?9?9?9*9?9*9*9?9*9,22.20,21.50,96,95725,0,0,385,0,0,0,0,0,0,0,208,0.0,10,10,8333.0,282,9,999999999,79,0.2200,0,88,0.160,0.0,0.0
2016,7,21,1,35,?9?9?9?9E0?9?9?9*9*9?9?9?9?9?9?9*9?9*9*9?9*9,22.20,21.50,96,95725,0,0,385,0,0,0,0,0,0,0,208,0.0,10,10,8333.0,282,9,999999999,79,0.2200,0,88,0.160,0.0,0.0
2016,7,21,1,36,?9?9?9?9E0?9?9?9*9*9?9?9?9?9?9?9*9?9*9*9?9*9,22.20,21.50,96,95725,0,0,385,0,0,0,0,0,0,0,208,0.0,10,10,8333.0,282,9,999999999,79,0.2200,0,88,0.160,0.0,0.0
2016,7,21,1,37,?9?9?9?9E0?9?9?9*9*9?9?9?9?9?9?9*9?9*9*9?9*9,22.20,21.50,96,95725,0,0,385,0,0,0,0,0,0,0,208,0.0,10,10,8333.0,282,9,999999999,79,0.2200,0,88,0.160,0.0,0.0
2016,7,21,1,38,?9?9?9?9E0?9?9?9*9*9?9?9?9?9?9?9*9?9*9*9?9*9,22.20,21.50,96,95725,0,0,385,0,0,0,0,0,0,0,208,0.0,10,10,8333.0,282,9,999999999,79,0.2200,0,88,0.160,0.0,0.0
2016,7,21,1,39,?9?9?9?9E0?9?9?9*9*9?9?9?9?9?9?9*9?9*9*9?9*9,22.20,21.50,96,95725,0,0,385,0,0,0,0,0,0,0,208,0.0,10,10,8333.0,282,9,999999999,79,0.2200,0,88,0.160,0.0,0.0
2016,7,21,1,40,?9?9?9?9E0?9?9?9*9*9?9?9?9?9?9?9*9?9*9*9?9*9,22.20,21.50,96,95725,0,0,385,0,0,0,0,0,0,0,208,0.0,10,10,8333.0,282,9,999999999,79,0.2200,0,88,0.160,0.0,0.0
2016,7,21,1,41,?9?9?9?9E0?9?9?9*9*9?9?9?9?9?9?9*9?9*9*9?9*9,22.20,21.50,96,95725,0,0,385,0,0,0,0,0,0,0,208,0.0,10,10,8333.0,282,9,999999999,79,0.2200,0,88,0.160,0.0,0.0
2016,7,21,1,42,?9?9?9?9E0?9?9?9*9*9?9?9?9?9?9?9*9?9*9*9?9*9,22.20,21.50,96,95725,0,0,385,0,0,0,0,0,0,0,208,0.0,10,10,8333.0,282,9,999999999,79,0.2200,0,88,0.160,0.0,0.0
2016,7,21,1,43,?9?9?9?9E0?9?9?9*9*9?9?9?9?9?9?9*9?9*9*9?9*9,22.20,21.50,96,95725,0,0,385,0,0,0,0,0,0,0,208,0.0,10,10,8333.0,282,9,999999999,79,0.2200,0,88,0.160,0.0,0.0
2016,7,21,1,44,?9?9?9?9E0?9?9?9*9*9?9?9?9?9?9?9*9?9*9*9?9*9,22.20,21.50,96,95725,0,0,385,0,0,0,0,0,0,0,208,0.0,10,10,8333.0,282,9,999999999,79,0.2200,0,88,0.160,0.0,0.0
2016,7,21,1,45,?9?9?9?9E0?9?9?9*9*9?9?9?9?9?9?9*9?9*9*9?9*9,22.20,21.50,96,95725,0,0,385,0,0,0,0,0,0,0,208,0.0,10,10,8333.0,282,9,999999999,79,0.2200,0,88,0.160,0.0,0.0
2016,7,21,1,46,?9?9?9?9E0?9?9?9*9*9?9?9?9?9?9?9*9?9*9*9?9*9,22.20,21.50,96,95725,0,0,385,0,0,0,0,0,0,0,208,0.0,10,10,8333.0,282,9,999999999,79,0.2200,0,88,0.160,0.0,0.0
2016,7,21,1,47,?9?9?9?9E0?9?9?9*9*9?9?9?9?9?9?9*9?9*9*9?9*9,22.20,21.50,96,95725,0,0,385,0,0,0,0,0,0,0,208,0.0,10,10,8333.0,282,9,999999999,79,0.2200,0,88,0.160,0.0,0.0
2016,7,21,1,48,?9?9?9?9E0?9?9?9*9*9?9?9?9?9?9?9*9?9*9*9?9*9,22.20,21.50,96,95725,0,0,385,0,0,0,0,0,0,0,208,0.0,10,10,8333.0,282,9,999999999,79,0.2200,0,88,0.160,0.0,0.0
2016,7,21,1,49,?9?9?9?9E0?9?9?9*9*9?9?9?9?9?9?9*9?9*9*9?9*9,22.20,21.50,96,95725,0,0,385,0,0,0,0,0,0,0,208,0.0,10,10,8333.0,282,9,999999999,79,0.2200,0,88,0.160,0.0,0.0
2016,7,21,1,50,?9?9?9?9E0?9?9?9*9*9?9?9?9?9?9?9*9?9*9*9?9*9,22.20,21.50,96,95725,0,0,385,0,0,0,0,0,0,0,208,0.0,10,10,8333.0,282,9,999999999,79,0.2200,0,88,0.160,0.0,0.0
2016,7,21,1,51,?9?9?9?9E0?9?9?9*9*9?9?9?9?9?9?9*9?9*9*9?9*9,22.20,21.50,96,95725,0,0,385,0,0,0,0,0,0,0,208,0.0,10,10,8333.0,282,9,999999999,79,0.2200,0,88,0.160,0.0,0.0
2016,7,21,1,52,?9?9?9?9E0?9?9?9*9*9?9?9?9?9?9?9*9?9*9*9?9*9,22.20,21.50,96,95725,0,0,385,0,0,0,0,0,0,0,208,0.0,10,10,8333.0,282,9,999999999,79,0.2200,0,88,0.160,0.0,0.0
2016,7,21,1,53,?9?9?9?9E0?9?9?9*9*9?9?9?9?9?9?9*9?9*9*9?9*9,22.20,21.50,96,95725,0,0,385,0,0,0,0,0,0,0,208,0.0,10,10,8333.0,282,9,999999999,79,0.2200,0,88,0.160,0.0,0.0
2016,7,21,1,54,?9?9?9?9E0?9?9?9*9*9?9?9?9?9?9?9*9?9*9*9?9*9,22.20,21.50,96,95725,0,0,385,0,0,0,0,0,0,0,208,0.0,10,10,8333.0,282,9,999999999,79,0.2200,0,88,0.160,0.0,0.0
2016,7,21,1,55,?9?9?9?9E0?9?9?9*9*9?9?9?9?9?9?9*9?9*9*9?9*9,22.20,21.50,96,95725,0,0,385,0,0,0,0,0,0,0,208,0.0,10,10,8333.0,282,9,999999999,79,0.2200,0,88,0.160,0.0,0.0
2016,7,21,1,56,?9?9?9?9E0?9?9?9*9*9?9?9?9?9?9?9*9?9*9*9?9*9,22.20,21.50,96,95725,0,0,385,0,0,0,0,0,0,0,208,0.0,10,10,8333.0,282,9,999999999,79,0.2200,0,88,0.160,0.0,0.0
2016,7,21,1,57,?9?9?9?9E0?9?9?9*9*9?9?9?9?9?9?9*9?9*9*9?9*9,22.20,21.50,96,95725,0,0,385,0,0,0,0,0,0,0,208,0.0,10,10,8333.0,282,9,999999999,79,0.2200,0,88,0.160,0.0,0.0
2016,7,21,1,58,?9?9?9?9E0?9?9?9*9*9?9?9?9?9?9?9*9?9*9*9?9*9,22.20,21.50,96,95725,0,0,385,0,0,0,0,0,0,0,208,0.0,10,10,8333.0,282,9,999999999,79,0.2200,0,88,0.160,0.0,0.0
2016,7,21,1,59,?9?9?9?9E0?9?9?9*9*9?9?9?9?9?9?9*9?9*9*9?9*9,22.20,21.50,96,95725,0,0,385,0,0,0,0,0,0,0,208,0.0,10,10,8333.0,282,9,999999999,79,0.2200,0,88,0.160,0.0,0.0
2016,7,21,1,60,?9?9?9?9E0?9?9?9*9*9?9?9?9?9?9?9*9?9*9*9?9*9,22.20,21.50,96,95725,0,0,385,0,0,0,0,0,0,0,208,0.0,10,10,8333.0,282,9,999999999,79,0.2200,0,88,0.160,0.0,0.0
2016,7,21,2,1,?9?9?9?9E0?9?9?9*9*9?9?9?9?9?9?9*9?9*9*9?9*9,22.10,21.70,97,95786,0,0,391,0,0,0,0,0,0,0,205,0.0,10,10,8333.0,314,9,999999999,81,0.2200,0,88,0.160,0.0,0.0
2016,7,21,2,2,?9?9?9?9E0?9?9?9*9*9?9?9?9?9?9?9*9?9*9*9?9*9,22.10,21.70,97,95786,0,0,391,0,0,0,0,0,0,0,205,0.0,10,10,8333.0,314,9,999999999,81,0.2200,0,88,0.160,0.0,0.0
2016,7,21,2,3,?9?9?9?9E0?9?9?9*9*9?9?9?9?9?9?9*9?9*9*9?9*9,22.10,21.70,97,95786,0,0,391,0,0,0,0,0,0,0,205,0.0,10,10,8333.0,314,9,999999999,81,0.2200,0,88,0.160,0.0,0.0
2016,7,21,2,4,?9?9?9?9E0?9?9?9*9*9?9?9?9?9?9?9*9?9*9*9?9*9,22.10,21.70,97,95786,0,0,391,0,0,0,0,0,0,0,205,0.0,10,10,8333.0,314,9,999999999,81,0.2200,0,88,0.160,0.0,0.0
2016,7,21,2,5,?9?9?9?9E0?9?9?9*9*9?9?9?9?9?9?9*9?9*9*9?9*9,22.10,21.70,97,95786,0,0,391,0,0,0,0,0,0,0,205,0.0,10,10,8333.0,314,9,999999999,81,0.2200,0,88,0.160,0.0,0.0
2016,7,21,2,6,?9?9?9?9E0?9?9?9*9*9?9?9?9?9?9?9*9?9*9*9?9*9,22.10,21.70,97,95786,0,0,391,0,0,0,0,0,0,0,205,0.0,10,10,8333.0,314,9,999999999,81,0.2200,0,88,0.160,0.0,0.0
2016,7,21,2,7,?9?9?9?9E0?9?9?9*9*9?9?9?9?9?9?9*9?9*9*9?9*9,22.10,21.70,97,95786,0,0,391,0,0,0,0,0,0,0,205,0.0,10,10,8333.0,314,9,999999999,81,0.2200,0,88,0.160,0.0,0.0
2016,7,21,2,8,?9?9?9?9E0?9?9?9*9*9?9?9?9?9?9?9*9?9*9*9?9*9,22.10,21.70,97,95786,0,0,391,0,0,0,0,0,0,0,205,0.0,10,10,8333.0,314,9,999999999,81,0.2200,0,88,0.160,0.0,0.0
2016,7,21,2,9,?9?9?9?9E0?9?9?9*9*9?9?9?9?9?9?9*9?9*9*9?9*9,22.10,21.70,97,95786,0,0,391,0,0,0,0,0,0,0,205,0.0,10,10,8333.0,314,9,999999999,81,0.2200,0,88,0.160,0.0,0.0
2016,7,21,2,10,?9?9?9?9E0?9?9?9*9*9?9?9?9?9?9?9*9?9*9*9?9*9,22.10,21.70,97,95786,0,0,391,0,0,0,0,0,0,0,205,0.0,10,10,8333.0,314,9,999999999,81,0.2200,0,88,0.160,0.0,0.0
2016,7,21,2,11,?9?9?9?9E0?9?9?9*9*9?9?9?9?9?9?9*9?9*9*9?9*9,22.10,21.70,97,95786,0,0,391,0,0,0,0,0,0,0,205,0.0,10,10,8333.0,314,9,999999999,81,0.2200,0,88,0.160,0.0,0.0
2016,7,21,2,12,?9?9?9?9E0?9?9?9*9*9?9?9?9?9?9?9*9?9*9*9?9*9,22.10,21.70,97,95786,0,0,391,0,0,0,0,0,0,0,205,0.0,10,10,8333.0,314,9,999999999,81,0.2200,0,88,0.160,0.0,0.0
2016,7,21,2,13,?9?9?9?9E0?9?9?9*9*9?9?9?9?9?9?9*9?9*9*9?9*9,22.10,21.70,97,95786,0,0,391,0,0,0,0,0,0,0,205,0.0,10,10,8333.0,314,9,999999999,81,0.2200,0,88,0.160,0.0,0.0
2016,7,21,2,14,?9?9?9?9E0?9?9?9*9*9?9?9?9?9?9?9*9?9*9*9?9*9,22.10,21.70,97,95786,0,0,391,0,0,0,0,0,0,0,205,0.0,10,10,8333.0,314,9,999999999,81,0.2200,0,88,0.160,0.0,0.0
2016,7,21,2,15,?9?9?9?9E0?9?9?9*9*9?9?9?9?9?9?9*9?9*9*9?9*9,22.10,21.70,97,95786,0,0,391,0,0,0,0,0,0,0,205,0.0,10,10,8333.0,314,9,999999999,81,0.2200,0,88,0.160,0.0,0.0
2016,7,21,2,16,?9?9?9?9E0?9?9?9*9*9?9?9?9?9?9?9*9?9*9*9?9*9,22.10,21.70,97,95786,0,0,391,0,0,0,0,0,0,0,205,0.0,10,10,8333.0,314,9,999999999,81,0.2200,0,88,0.160,0.0,0.0
2016,7,21,2,17,?9?9?9?9E0?9?9?9*9*9?9?9?9?9?9?9*9?9*9*9?9*9,22.10,21.70,97,95786,0,0,391,0,0,0,0,0,0,0,205,0.0,10,10,8333.0,314,9,999999999,81,0.2200,0,88,0.160,0.0,0.0
2016,7,21,2,18,?9?9?9?9E0?9?9?9*9*9?9?9?9?9?9?9*9?9*9*9?9*9,22.10,21.70,97,95786,0,0,391,0,0,0,0,0,0,0,205,0.0,10,10,8333.0,314,9,999999999,81,0.2200,0,88,0.160,0.0,0.0
2016,7,21,2,19,?9?9?9?9E0?9?9?9*9*9?9?9?9?9?9?9*9?9*9*9?9*9,22.10,21.70,97,95786,0,0,391,0,0,0,0,0,0,0,205,0.0,10,10,8333.0,314,9,999999999,81,0.2200,0,88,0.160,0.0,0.0
2016,7,21,2,20,?9?9?9?9E0?9?9?9*9*9?9?9?9?9?9?9*9?9*9*9?9*9,22.10,21.70,97,95786,0,0,391,0,0,0,0,0,0,0,205,0.0,10,10,8333.0,314,9,999999999,81,0.2200,0,88,0.160,0.0,0.0
2016,7,21,2,21,?9?9?9?9E0?9?9?9*9*9?9?9?9?9?9?9*9?9*9*9?9*9,22.10,21.70,97,95786,0,0,391,0,0,0,0,0,0,0,205,0.0,10,10,8333.0,314,9,999999999,81,0.2200,0,88,0.160,0.0,0.0
2016,7,21,2,22,?9?9?9?9E0?9?9?9*9*9?9?9?9?9?9?9*9?9*9*9?9*9,22.10,21.70,97,95786,0,0,391,0,0,0,0,0,0,0,205,0.0,10,10,8333.0,314,9,999999999,81,0.2200,0,88,0.160,0.0,0.0
2016,7,21,2,23,?9?9?9?9E0?9?9?9*9*9?9?9?9?9?9?9*9?9*9*9?9*9,22.10,21.70,97,95786,0,0,391,0,0,0,0,0,0,0,205,0.0,10,10,8333.0,314,9,999999999,81,0.2200,0,88,0.160,0.0,0.0
2016,7,21,2,24,?9?9?9?9E0?9?9?9*9*9?9?9?9?9?9?9*9?9*9*9?9*9,22.10,21.70,97,95786,0,0,391,0,0,0,0,0,0,0,205,0.0,10,10,8333.0,314,9,999999999,81,0.2200,0,88,0.160,0.0,0.0
2016,7,21,2,25,?9?9?9?9E0?9?9?9*9*9?9?9?9?9?9?9*9?9*9*9?9*9,22.10,21.70,97,95786,0,0,391,0,0,0,0,0,0,0,205,0.0,10,10,8333.0,314,9,999999999,81,0.2200,0,88,0.160,0.0,0.0
2016,7,21,2,26,?9?9?9?9E0?9?9?9*9*9?9?9?9?9?9?9*9?9*9*9?9*9,22.10,21.70,97,95786,0,0,391,0,0,0,0,0,0,0,205,0.0,10,10,8333.0,314,9,999999999,81,0.2200,0,88,0.160,0.0,0.0
2016,7,21,2,27,?9?9?9?9E0?9?9?9*9*9?9?9?9?9?9?9*9?9*9*9?9*9,22.10,21.70,97,95786,0,0,391,0,0,0,0,0,0,0,205,0.0,10,10,8333.0,314,9,999999999,81,0.2200,0,88,0.160,0.0,0.0
2016,7,21,2,28,?9?9?9?9E0?9?9?9*9*9?9?9?9?9?9?9*9?9*9*9?9*9,22.10,21.70,97,95786,0,0,391,0,0,0,0,0,0,0,205,0.0,10,10,8333.0,314,9,999999999,81,0.2200,0,88,0.160,0.0,0.0
2016,7,21,2,29,?9?9?9?9E0?9?9?9*9*9?9?9?9?9?9?9*9?9*9*9?9*9,22.10,21.70,97,95786,0,0,391,0,0,0,0,0,0,0,205,0.0,10,10,8333.0,314,9,999999999,81,0.2200,0,88,0.160,0.0,0.0
2016,7,21,2,30,?9?9?9?9E0?9?9?9*9*9?9?9?9?9?9?9*9?9*9*9?9*9,22.10,21.70,97,95786,0,0,391,0,0,0,0,0,0,0,205,0.0,10,10,8333.0,314,9,999999999,81,0.2200,0,88,0.160,0.0,0.0
2016,7,21,2,31,?9?9?9?9E0?9?9?9*9*9?9?9?9?9?9?9*9?9*9*9?9*9,22.10,21.70,97,95786,0,0,391,0,0,0,0,0,0,0,205,0.0,10,10,8333.0,314,9,999999999,81,0.2200,0,88,0.160,0.0,0.0
2016,7,21,2,32,?9?9?9?9E0?9?9?9*9*9?9?9?9?9?9?9*9?9*9*9?9*9,22.10,21.70,97,95786,0,0,391,0,0,0,0,0,0,0,205,0.0,10,10,8333.0,314,9,999999999,81,0.2200,0,88,0.160,0.0,0.0
2016,7,21,2,33,?9?9?9?9E0?9?9?9*9*9?9?9?9?9?9?9*9?9*9*9?9*9,22.10,21.70,97,95786,0,0,391,0,0,0,0,0,0,0,205,0.0,10,10,8333.0,314,9,999999999,81,0.2200,0,88,0.160,0.0,0.0
2016,7,21,2,34,?9?9?9?9E0?9?9?9*9*9?9?9?9?9?9?9*9?9*9*9?9*9,22.10,21.70,97,95786,0,0,391,0,0,0,0,0,0,0,205,0.0,10,10,8333.0,314,9,999999999,81,0.2200,0,88,0.160,0.0,0.0
2016,7,21,2,35,?9?9?9?9E0?9?9?9*9*9?9?9?9?9?9?9*9?9*9*9?9*9,22.10,21.70,97,95786,0,0,391,0,0,0,0,0,0,0,205,0.0,10,10,8333.0,314,9,999999999,81,0.2200,0,88,0.160,0.0,0.0
2016,7,21,2,36,?9?9?9?9E0?9?9?9*9*9?9?9?9?9?9?9*9?9*9*9?9*9,22.10,21.70,97,95786,0,0,391,0,0,0,0,0,0,0,205,0.0,10,10,8333.0,314,9,999999999,81,0.2200,0,88,0.160,0.0,0.0
2016,7,21,2,37,?9?9?9?9E0?9?9?9*9*9?9?9?9?9?9?9*9?9*9*9?9*9,22.10,21.70,97,95786,0,0,391,0,0,0,0,0,0,0,205,0.0,10,10,8333.0,314,9,999999999,81,0.2200,0,88,0.160,0.0,0.0
2016,7,21,2,38,?9?9?9?9E0?9?9?9*9*9?9?9?9?9?9?9*9?9*9*9?9*9,22.10,21.70,97,95786,0,0,391,0,0,0,0,0,0,0,205,0.0,10,10,8333.0,314,9,999999999,81,0.2200,0,88,0.160,0.0,0.0
2016,7,21,2,39,?9?9?9?9E0?9?9?9*9*9?9?9?9?9?9?9*9?9*9*9?9*9,22.10,21.70,97,95786,0,0,391,0,0,0,0,0,0,0,205,0.0,10,10,8333.0,314,9,999999999,81,0.2200,0,88,0.160,0.0,0.0
2016,7,21,2,40,?9?9?9?9E0?9?9?9*9*9?9?9?9?9?9?9*9?9*9*9?9*9,22.10,21.70,97,95786,0,0,391,0,0,0,0,0,0,0,205,0.0,10,10,8333.0,314,9,999999999,81,0.2200,0,88,0.160,0.0,0.0
2016,7,21,2,41,?9?9?9?9E0?9?9?9*9*9?9?9?9?9?9?9*9?9*9*9?9*9,22.10,21.70,97,95786,0,0,391,0,0,0,0,0,0,0,205,0.0,10,10,8333.0,314,9,999999999,81,0.2200,0,88,0.160,0.0,0.0
2016,7,21,2,42,?9?9?9?9E0?9?9?9*9*9?9?9?9?9?9?9*9?9*9*9?9*9,22.10,21.70,97,95786,0,0,391,0,0,0,0,0,0,0,205,0.0,10,10,8333.0,314,9,999999999,81,0.2200,0,88,0.160,0.0,0.0
2016,7,21,2,43,?9?9?9?9E0?9?9?9*9*9?9?9?9?9?9?9*9?9*9*9?9*9,22.10,21.70,97,95786,0,0,391,0,0,0,0,0,0,0,205,0.0,10,10,8333.0,314,9,999999999,81,0.2200,0,88,0.160,0.0,0.0
2016,7,21,2,44,?9?9?9?9E0?9?9?9*9*9?9?9?9?9?9?9*9?9*9*9?9*9,22.10,21.70,97,95786,0,0,391,0,0,0,0,0,0,0,205,0.0,10,10,8333.0,314,9,999999999,81,0.2200,0,88,0.160,0.0,0.0
2016,7,21,2,45,?9?9?9?9E0?9?9?9*9*9?9?9?9?9?9?9*9?9*9*9?9*9,22.10,21.70,97,95786,0,0,391,0,0,0,0,0,0,0,205,0.0,10,10,8333.0,314,9,999999999,81,0.2200,0,88,0.160,0.0,0.0
2016,7,21,2,46,?9?9?9?9E0?9?9?9*9*9?9?9?9?9?9?9*9?9*9*9?9*9,22.10,21.70,97,95786,0,0,391,0,0,0,0,0,0,0,205,0.0,10,10,8333.0,314,9,999999999,81,0.2200,0,88,0.160,0.0,0.0
2016,7,21,2,47,?9?9?9?9E0?9?9?9*9*9?9?9?9?9?9?9*9?9*9*9?9*9,22.10,21.70,97,95786,0,0,391,0,0,0,0,0,0,0,205,0.0,10,10,8333.0,314,9,999999999,81,0.2200,0,88,0.160,0.0,0.0
2016,7,21,2,48,?9?9?9?9E0?9?9?9*9*9?9?9?9?9?9?9*9?9*9*9?9*9,22.10,21.70,97,95786,0,0,391,0,0,0,0,0,0,0,205,0.0,10,10,8333.0,314,9,999999999,81,0.2200,0,88,0.160,0.0,0.0
2016,7,21,2,49,?9?9?9?9E0?9?9?9*9*9?9?9?9?9?9?9*9?9*9*9?9*9,22.10,21.70,97,95786,0,0,391,0,0,0,0,0,0,0,205,0.0,10,10,8333.0,314,9,999999999,81,0.2200,0,88,0.160,0.0,0.0
2016,7,21,2,50,?9?9?9?9E0?9?9?9*9*9?9?9?9?9?9?9*9?9*9*9?9*9,22.10,21.70,97,95786,0,0,391,0,0,0,0,0,0,0,205,0.0,10,10,8333.0,314,9,999999999,81,0.2200,0,88,0.160,0.0,0.0
2016,7,21,2,51,?9?9?9?9E0?9?9?9*9*9?9?9?9?9?9?9*9?9*9*9?9*9,22.10,21.70,97,95786,0,0,391,0,0,0,0,0,0,0,205,0.0,10,10,8333.0,314,9,999999999,81,0.2200,0,88,0.160,0.0,0.0
2016,7,21,2,52,?9?9?9?9E0?9?9?9*9*9?9?9?9?9?9?9*9?9*9*9?9*9,22.10,21.70,97,95786,0,0,391,0,0,0,0,0,0,0,205,0.0,10,10,8333.0,314,9,999999999,81,0.2200,0,88,0.160,0.0,0.0
2016,7,21,2,53,?9?9?9?9E0?9?9?9*9*9?9?9?9?9?9?9*9?9*9*9?9*9,22.10,21.70,97,95786,0,0,391,0,0,0,0,0,0,0,205,0.0,10,10,8333.0,314,9,999999999,81,0.2200,0,88,0.160,0.0,0.0
2016,7,21,2,54,?9?9?9?9E0?9?9?9*9*9?9?9?9?9?9?9*9?9*9*9?9*9,22.10,21.70,97,95786,0,0,391,0,0,0,0,0,0,0,205,0.0,10,10,8333.0,314,9,999999999,81,0.2200,0,88,0.160,0.0,0.0
2016,7,21,2,55,?9?9?9?9E0?9?9?9*9*9?9?9?9?9?9?9*9?9*9*9?9*9,22.10,21.70,97,95786,0,0,391,0,0,0,0,0,0,0,205,0.0,10,10,8333.0,314,9,999999999,81,0.2200,0,88,0.160,0.0,0.0
2016,7,21,2,56,?9?9?9?9E0?9?9?9*9*9?9?9?9?9?9?9*9?9*9*9?9*9,22.10,21.70,97,95786,0,0,391,0,0,0,0,0,0,0,205,0.0,10,10,8333.0,314,9,999999999,81,0.2200,0,88,0.160,0.0,0.0
2016,7,21,2,57,?9?9?9?9E0?9?9?9*9*9?9?9?9?9?9?9*9?9*9*9?9*9,22.10,21.70,97,95786,0,0,391,0,0,0,0,0,0,0,205,0.0,10,10,8333.0,314,9,999999999,81,0.2200,0,88,0.160,0.0,0.0
2016,7,21,2,58,?9?9?9?9E0?9?9?9*9*9?9?9?9?9?9?9*9?9*9*9?9*9,22.10,21.70,97,95786,0,0,391,0,0,0,0,0,0,0,205,0.0,10,10,8333.0,314,9,999999999,81,0.2200,0,88,0.160,0.0,0.0
2016,7,21,2,59,?9?9?9?9E0?9?9?9*9*9?9?9?9?9?9?9*9?9*9*9?9*9,22.10,21.70,97,95786,0,0,391,0,0,0,0,0,0,0,205,0.0,10,10,8333.0,314,9,999999999,81,0.2200,0,88,0.160,0.0,0.0
2016,7,21,2,60,?9?9?9?9E0?9?9?9*9*9?9?9?9?9?9?9*9?9*9*9?9*9,22.10,21.70,97,95786,0,0,391,0,0,0,0,0,0,0,205,0.0,10,10,8333.0,314,9,999999999,81,0.2200,0,88,0.160,0.0,0.0
2016,7,21,3,1,?9?9?9?9E0?9?9?9?9?9?9?9?9?9?9?9*9?9*9*9?9*9,22.00,21.80,99,95847,0,0,399,0,0,0,0,0,0,0,206,0.0,8,8,8333.0,510,9,999999999,82,0.2200,0,88,0.160,0.0,0.0
2016,7,21,3,2,?9?9?9?9E0?9?9?9?9?9?9?9?9?9?9?9*9?9*9*9?9*9,22.00,21.80,99,95847,0,0,399,0,0,0,0,0,0,0,206,0.0,8,8,8333.0,510,9,999999999,82,0.2200,0,88,0.160,0.0,0.0
2016,7,21,3,3,?9?9?9?9E0?9?9?9?9?9?9?9?9?9?9?9*9?9*9*9?9*9,22.00,21.80,99,95847,0,0,399,0,0,0,0,0,0,0,206,0.0,8,8,8333.0,510,9,999999999,82,0.2200,0,88,0.160,0.0,0.0
2016,7,21,3,4,?9?9?9?9E0?9?9?9?9?9?9?9?9?9?9?9*9?9*9*9?9*9,22.00,21.80,99,95847,0,0,399,0,0,0,0,0,0,0,206,0.0,8,8,8333.0,510,9,999999999,82,0.2200,0,88,0.160,0.0,0.0
2016,7,21,3,5,?9?9?9?9E0?9?9?9?9?9?9?9?9?9?9?9*9?9*9*9?9*9,22.00,21.80,99,95847,0,0,399,0,0,0,0,0,0,0,206,0.0,8,8,8333.0,510,9,999999999,82,0.2200,0,88,0.160,0.0,0.0
2016,7,21,3,6,?9?9?9?9E0?9?9?9?9?9?9?9?9?9?9?9*9?9*9*9?9*9,22.00,21.80,99,95847,0,0,399,0,0,0,0,0,0,0,206,0.0,8,8,8333.0,510,9,999999999,82,0.2200,0,88,0.160,0.0,0.0
2016,7,21,3,7,?9?9?9?9E0?9?9?9?9?9?9?9?9?9?9?9*9?9*9*9?9*9,22.00,21.80,99,95847,0,0,399,0,0,0,0,0,0,0,206,0.0,8,8,8333.0,510,9,999999999,82,0.2200,0,88,0.160,0.0,0.0
2016,7,21,3,8,?9?9?9?9E0?9?9?9?9?9?9?9?9?9?9?9*9?9*9*9?9*9,22.00,21.80,99,95847,0,0,399,0,0,0,0,0,0,0,206,0.0,8,8,8333.0,510,9,999999999,82,0.2200,0,88,0.160,0.0,0.0
2016,7,21,3,9,?9?9?9?9E0?9?9?9?9?9?9?9?9?9?9?9*9?9*9*9?9*9,22.00,21.80,99,95847,0,0,399,0,0,0,0,0,0,0,206,0.0,8,8,8333.0,510,9,999999999,82,0.2200,0,88,0.160,0.0,0.0
2016,7,21,3,10,?9?9?9?9E0?9?9?9?9?9?9?9?9?9?9?9*9?9*9*9?9*9,22.00,21.80,99,95847,0,0,399,0,0,0,0,0,0,0,206,0.0,8,8,8333.0,510,9,999999999,82,0.2200,0,88,0.160,0.0,0.0
2016,7,21,3,11,?9?9?9?9E0?9?9?9?9?9?9?9?9?9?9?9*9?9*9*9?9*9,22.00,21.80,99,95847,0,0,399,0,0,0,0,0,0,0,206,0.0,8,8,8333.0,510,9,999999999,82,0.2200,0,88,0.160,0.0,0.0
2016,7,21,3,12,?9?9?9?9E0?9?9?9?9?9?9?9?9?9?9?9*9?9*9*9?9*9,22.00,21.80,99,95847,0,0,399,0,0,0,0,0,0,0,206,0.0,8,8,8333.0,510,9,999999999,82,0.2200,0,88,0.160,0.0,0.0
2016,7,21,3,13,?9?9?9?9E0?9?9?9?9?9?9?9?9?9?9?9*9?9*9*9?9*9,22.00,21.80,99,95847,0,0,399,0,0,0,0,0,0,0,206,0.0,8,8,8333.0,510,9,999999999,82,0.2200,0,88,0.160,0.0,0.0
2016,7,21,3,14,?9?9?9?9E0?9?9?9?9?9?9?9?9?9?9?9*9?9*9*9?9*9,22.00,21.80,99,95847,0,0,399,0,0,0,0,0,0,0,206,0.0,8,8,8333.0,510,9,999999999,82,0.2200,0,88,0.160,0.0,0.0
2016,7,21,3,15,?9?9?9?9E0?9?9?9?9?9?9?9?9?9?9?9*9?9*9*9?9*9,22.00,21.80,99,95847,0,0,399,0,0,0,0,0,0,0,206,0.0,8,8,8333.0,510,9,999999999,82,0.2200,0,88,0.160,0.0,0.0
2016,7,21,3,16,?9?9?9?9E0?9?9?9?9?9?9?9?9?9?9?9*9?9*9*9?9*9,22.00,21.80,99,95847,0,0,399,0,0,0,0,0,0,0,206,0.0,8,8,8333.0,510,9,999999999,82,0.2200,0,88,0.160,0.0,0.0
2016,7,21,3,17,?9?9?9?9E0?9?9?9?9?9?9?9?9?9?9?9*9?9*9*9?9*9,22.00,21.80,99,95847,0,0,399,0,0,0,0,0,0,0,206,0.0,8,8,8333.0,510,9,999999999,82,0.2200,0,88,0.160,0.0,0.0
2016,7,21,3,18,?9?9?9?9E0?9?9?9?9?9?9?9?9?9?9?9*9?9*9*9?9*9,22.00,21.80,99,95847,0,0,399,0,0,0,0,0,0,0,206,0.0,8,8,8333.0,510,9,999999999,82,0.2200,0,88,0.160,0.0,0.0
2016,7,21,3,19,?9?9?9?9E0?9?9?9?9?9?9?9?9?9?9?9*9?9*9*9?9*9,22.00,21.80,99,95847,0,0,399,0,0,0,0,0,0,0,206,0.0,8,8,8333.0,510,9,999999999,82,0.2200,0,88,0.160,0.0,0.0
2016,7,21,3,20,?9?9?9?9E0?9?9?9?9?9?9?9?9?9?9?9*9?9*9*9?9*9,22.00,21.80,99,95847,0,0,399,0,0,0,0,0,0,0,206,0.0,8,8,8333.0,510,9,999999999,82,0.2200,0,88,0.160,0.0,0.0
2016,7,21,3,21,?9?9?9?9E0?9?9?9?9?9?9?9?9?9?9?9*9?9*9*9?9*9,22.00,21.80,99,95847,0,0,399,0,0,0,0,0,0,0,206,0.0,8,8,8333.0,510,9,999999999,82,0.2200,0,88,0.160,0.0,0.0
2016,7,21,3,22,?9?9?9?9E0?9?9?9?9?9?9?9?9?9?9?9*9?9*9*9?9*9,22.00,21.80,99,95847,0,0,399,0,0,0,0,0,0,0,206,0.0,8,8,8333.0,510,9,999999999,82,0.2200,0,88,0.160,0.0,0.0
2016,7,21,3,23,?9?9?9?9E0?9?9?9?9?9?9?9?9?9?9?9*9?9*9*9?9*9,22.00,21.80,99,95847,0,0,399,0,0,0,0,0,0,0,206,0.0,8,8,8333.0,510,9,999999999,82,0.2200,0,88,0.160,0.0,0.0
2016,7,21,3,24,?9?9?9?9E0?9?9?9?9?9?9?9?9?9?9?9*9?9*9*9?9*9,22.00,21.80,99,95847,0,0,399,0,0,0,0,0,0,0,206,0.0,8,8,8333.0,510,9,999999999,82,0.2200,0,88,0.160,0.0,0.0
2016,7,21,3,25,?9?9?9?9E0?9?9?9?9?9?9?9?9?9?9?9*9?9*9*9?9*9,22.00,21.80,99,95847,0,0,399,0,0,0,0,0,0,0,206,0.0,8,8,8333.0,510,9,999999999,82,0.2200,0,88,0.160,0.0,0.0
2016,7,21,3,26,?9?9?9?9E0?9?9?9?9?9?9?9?9?9?9?9*9?9*9*9?9*9,22.00,21.80,99,95847,0,0,399,0,0,0,0,0,0,0,206,0.0,8,8,8333.0,510,9,999999999,82,0.2200,0,88,0.160,0.0,0.0
2016,7,21,3,27,?9?9?9?9E0?9?9?9?9?9?9?9?9?9?9?9*9?9*9*9?9*9,22.00,21.80,99,95847,0,0,399,0,0,0,0,0,0,0,206,0.0,8,8,8333.0,510,9,999999999,82,0.2200,0,88,0.160,0.0,0.0
2016,7,21,3,28,?9?9?9?9E0?9?9?9?9?9?9?9?9?9?9?9*9?9*9*9?9*9,22.00,21.80,99,95847,0,0,399,0,0,0,0,0,0,0,206,0.0,8,8,8333.0,510,9,999999999,82,0.2200,0,88,0.160,0.0,0.0
2016,7,21,3,29,?9?9?9?9E0?9?9?9?9?9?9?9?9?9?9?9*9?9*9*9?9*9,22.00,21.80,99,95847,0,0,399,0,0,0,0,0,0,0,206,0.0,8,8,8333.0,510,9,999999999,82,0.2200,0,88,0.160,0.0,0.0
2016,7,21,3,30,?9?9?9?9E0?9?9?9?9?9?9?9?9?9?9?9*9?9*9*9?9*9,22.00,21.80,99,95847,0,0,399,0,0,0,0,0,0,0,206,0.0,8,8,8333.0,510,9,999999999,82,0.2200,0,88,0.160,0.0,0.0
2016,7,21,3,31,?9?9?9?9E0?9?9?9?9?9?9?9?9?9?9?9*9?9*9*9?9*9,22.00,21.80,99,95847,0,0,399,0,0,0,0,0,0,0,206,0.0,8,8,8333.0,510,9,999999999,82,0.2200,0,88,0.160,0.0,0.0
2016,7,21,3,32,?9?9?9?9E0?9?9?9?9?9?9?9?9?9?9?9*9?9*9*9?9*9,22.00,21.80,99,95847,0,0,399,0,0,0,0,0,0,0,206,0.0,8,8,8333.0,510,9,999999999,82,0.2200,0,88,0.160,0.0,0.0
2016,7,21,3,33,?9?9?9?9E0?9?9?9?9?9?9?9?9?9?9?9*9?9*9*9?9*9,22.00,21.80,99,95847,0,0,399,0,0,0,0,0,0,0,206,0.0,8,8,8333.0,510,9,999999999,82,0.2200,0,88,0.160,0.0,0.0
2016,7,21,3,34,?9?9?9?9E0?9?9?9?9?9?9?9?9?9?9?9*9?9*9*9?9*9,22.00,21.80,99,95847,0,0,399,0,0,0,0,0,0,0,206,0.0,8,8,8333.0,510,9,999999999,82,0.2200,0,88,0.160,0.0,0.0
2016,7,21,3,35,?9?9?9?9E0?9?9?9?9?9?9?9?9?9?9?9*9?9*9*9?9*9,22.00,21.80,99,95847,0,0,399,0,0,0,0,0,0,0,206,0.0,8,8,8333.0,510,9,999999999,82,0.2200,0,88,0.160,0.0,0.0
2016,7,21,3,36,?9?9?9?9E0?9?9?9?9?9?9?9?9?9?9?9*9?9*9*9?9*9,22.00,21.80,99,95847,0,0,399,0,0,0,0,0,0,0,206,0.0,8,8,8333.0,510,9,999999999,82,0.2200,0,88,0.160,0.0,0.0
2016,7,21,3,37,?9?9?9?9E0?9?9?9?9?9?9?9?9?9?9?9*9?9*9*9?9*9,22.00,21.80,99,95847,0,0,399,0,0,0,0,0,0,0,206,0.0,8,8,8333.0,510,9,999999999,82,0.2200,0,88,0.160,0.0,0.0
2016,7,21,3,38,?9?9?9?9E0?9?9?9?9?9?9?9?9?9?9?9*9?9*9*9?9*9,22.00,21.80,99,95847,0,0,399,0,0,0,0,0,0,0,206,0.0,8,8,8333.0,510,9,999999999,82,0.2200,0,88,0.160,0.0,0.0
2016,7,21,3,39,?9?9?9?9E0?9?9?9?9?9?9?9?9?9?9?9*9?9*9*9?9*9,22.00,21.80,99,95847,0,0,399,0,0,0,0,0,0,0,206,0.0,8,8,8333.0,510,9,999999999,82,0.2200,0,88,0.160,0.0,0.0
2016,7,21,3,40,?9?9?9?9E0?9?9?9?9?9?9?9?9?9?9?9*9?9*9*9?9*9,22.00,21.80,99,95847,0,0,399,0,0,0,0,0,0,0,206,0.0,8,8,8333.0,510,9,999999999,82,0.2200,0,88,0.160,0.0,0.0
2016,7,21,3,41,?9?9?9?9E0?9?9?9?9?9?9?9?9?9?9?9*9?9*9*9?9*9,22.00,21.80,99,95847,0,0,399,0,0,0,0,0,0,0,206,0.0,8,8,8333.0,510,9,999999999,82,0.2200,0,88,0.160,0.0,0.0
2016,7,21,3,42,?9?9?9?9E0?9?9?9?9?9?9?9?9?9?9?9*9?9*9*9?9*9,22.00,21.80,99,95847,0,0,399,0,0,0,0,0,0,0,206,0.0,8,8,8333.0,510,9,999999999,82,0.2200,0,88,0.160,0.0,0.0
2016,7,21,3,43,?9?9?9?9E0?9?9?9?9?9?9?9?9?9?9?9*9?9*9*9?9*9,22.00,21.80,99,95847,0,0,399,0,0,0,0,0,0,0,206,0.0,8,8,8333.0,510,9,999999999,82,0.2200,0,88,0.160,0.0,0.0
2016,7,21,3,44,?9?9?9?9E0?9?9?9?9?9?9?9?9?9?9?9*9?9*9*9?9*9,22.00,21.80,99,95847,0,0,399,0,0,0,0,0,0,0,206,0.0,8,8,8333.0,510,9,999999999,82,0.2200,0,88,0.160,0.0,0.0
2016,7,21,3,45,?9?9?9?9E0?9?9?9?9?9?9?9?9?9?9?9*9?9*9*9?9*9,22.00,21.80,99,95847,0,0,399,0,0,0,0,0,0,0,206,0.0,8,8,8333.0,510,9,999999999,82,0.2200,0,88,0.160,0.0,0.0
2016,7,21,3,46,?9?9?9?9E0?9?9?9?9?9?9?9?9?9?9?9*9?9*9*9?9*9,22.00,21.80,99,95847,0,0,399,0,0,0,0,0,0,0,206,0.0,8,8,8333.0,510,9,999999999,82,0.2200,0,88,0.160,0.0,0.0
2016,7,21,3,47,?9?9?9?9E0?9?9?9?9?9?9?9?9?9?9?9*9?9*9*9?9*9,22.00,21.80,99,95847,0,0,399,0,0,0,0,0,0,0,206,0.0,8,8,8333.0,510,9,999999999,82,0.2200,0,88,0.160,0.0,0.0
2016,7,21,3,48,?9?9?9?9E0?9?9?9?9?9?9?9?9?9?9?9*9?9*9*9?9*9,22.00,21.80,99,95847,0,0,399,0,0,0,0,0,0,0,206,0.0,8,8,8333.0,510,9,999999999,82,0.2200,0,88,0.160,0.0,0.0
2016,7,21,3,49,?9?9?9?9E0?9?9?9?9?9?9?9?9?9?9?9*9?9*9*9?9*9,22.00,21.80,99,95847,0,0,399,0,0,0,0,0,0,0,206,0.0,8,8,8333.0,510,9,999999999,82,0.2200,0,88,0.160,0.0,0.0
2016,7,21,3,50,?9?9?9?9E0?9?9?9?9?9?9?9?9?9?9?9*9?9*9*9?9*9,22.00,21.80,99,95847,0,0,399,0,0,0,0,0,0,0,206,0.0,8,8,8333.0,510,9,999999999,82,0.2200,0,88,0.160,0.0,0.0
2016,7,21,3,51,?9?9?9?9E0?9?9?9?9?9?9?9?9?9?9?9*9?9*9*9?9*9,22.00,21.80,99,95847,0,0,399,0,0,0,0,0,0,0,206,0.0,8,8,8333.0,510,9,999999999,82,0.2200,0,88,0.160,0.0,0.0
2016,7,21,3,52,?9?9?9?9E0?9?9?9?9?9?9?9?9?9?9?9*9?9*9*9?9*9,22.00,21.80,99,95847,0,0,399,0,0,0,0,0,0,0,206,0.0,8,8,8333.0,510,9,999999999,82,0.2200,0,88,0.160,0.0,0.0
2016,7,21,3,53,?9?9?9?9E0?9?9?9?9?9?9?9?9?9?9?9*9?9*9*9?9*9,22.00,21.80,99,95847,0,0,399,0,0,0,0,0,0,0,206,0.0,8,8,8333.0,510,9,999999999,82,0.2200,0,88,0.160,0.0,0.0
2016,7,21,3,54,?9?9?9?9E0?9?9?9?9?9?9?9?9?9?9?9*9?9*9*9?9*9,22.00,21.80,99,95847,0,0,399,0,0,0,0,0,0,0,206,0.0,8,8,8333.0,510,9,999999999,82,0.2200,0,88,0.160,0.0,0.0
2016,7,21,3,55,?9?9?9?9E0?9?9?9?9?9?9?9?9?9?9?9*9?9*9*9?9*9,22.00,21.80,99,95847,0,0,399,0,0,0,0,0,0,0,206,0.0,8,8,8333.0,510,9,999999999,82,0.2200,0,88,0.160,0.0,0.0
2016,7,21,3,56,?9?9?9?9E0?9?9?9?9?9?9?9?9?9?9?9*9?9*9*9?9*9,22.00,21.80,99,95847,0,0,399,0,0,0,0,0,0,0,206,0.0,8,8,8333.0,510,9,999999999,82,0.2200,0,88,0.160,0.0,0.0
2016,7,21,3,57,?9?9?9?9E0?9?9?9?9?9?9?9?9?9?9?9*9?9*9*9?9*9,22.00,21.80,99,95847,0,0,399,0,0,0,0,0,0,0,206,0.0,8,8,8333.0,510,9,999999999,82,0.2200,0,88,0.160,0.0,0.0
2016,7,21,3,58,?9?9?9?9E0?9?9?9?9?9?9?9?9?9?9?9*9?9*9*9?9*9,22.00,21.80,99,95847,0,0,399,0,0,0,0,0,0,0,206,0.0,8,8,8333.0,510,9,999999999,82,0.2200,0,88,0.160,0.0,0.0
2016,7,21,3,59,?9?9?9?9E0?9?9?9?9?9?9?9?9?9?9?9*9?9*9*9?9*9,22.00,21.80,99,95847,0,0,399,0,0,0,0,0,0,0,206,0.0,8,8,8333.0,510,9,999999999,82,0.2200,0,88,0.160,0.0,0.0
2016,7,21,3,60,?9?9?9?9E0?9?9?9?9?9?9?9?9?9?9?9*9?9*9*9?9*9,22.00,21.80,99,95847,0,0,399,0,0,0,0,0,0,0,206,0.0,8,8,8333.0,510,9,999999999,82,0.2200,0,88,0.160,0.0,0.0
2016,7,21,4,1,?9?9?9?9E0?9?9?9*9*9?9?9?9?9?9?9*9?9*9*9?9*9,21.90,21.40,97,95720,0,0,387,0,0,0,0,0,0,0,203,0.0,10,10,8333.0,723,9,999999999,79,0.2200,0,88,0.160,0.0,0.0
2016,7,21,4,2,?9?9?9?9E0?9?9?9*9*9?9?9?9?9?9?9*9?9*9*9?9*9,21.90,21.40,97,95720,0,0,387,0,0,0,0,0,0,0,203,0.0,10,10,8333.0,723,9,999999999,79,0.2200,0,88,0.160,0.0,0.0
2016,7,21,4,3,?9?9?9?9E0?9?9?9*9*9?9?9?9?9?9?9*9?9*9*9?9*9,21.90,21.40,97,95720,0,0,387,0,0,0,0,0,0,0,203,0.0,10,10,8333.0,723,9,999999999,79,0.2200,0,88,0.160,0.0,0.0
2016,7,21,4,4,?9?9?9?9E0?9?9?9*9*9?9?9?9?9?9?9*9?9*9*9?9*9,21.90,21.40,97,95720,0,0,387,0,0,0,0,0,0,0,203,0.0,10,10,8333.0,723,9,999999999,79,0.2200,0,88,0.160,0.0,0.0
2016,7,21,4,5,?9?9?9?9E0?9?9?9*9*9?9?9?9?9?9?9*9?9*9*9?9*9,21.90,21.40,97,95720,0,0,387,0,0,0,0,0,0,0,203,0.0,10,10,8333.0,723,9,999999999,79,0.2200,0,88,0.160,0.0,0.0
2016,7,21,4,6,?9?9?9?9E0?9?9?9*9*9?9?9?9?9?9?9*9?9*9*9?9*9,21.90,21.40,97,95720,0,0,387,0,0,0,0,0,0,0,203,0.0,10,10,8333.0,723,9,999999999,79,0.2200,0,88,0.160,0.0,0.0
2016,7,21,4,7,?9?9?9?9E0?9?9?9*9*9?9?9?9?9?9?9*9?9*9*9?9*9,21.90,21.40,97,95720,0,0,387,0,0,0,0,0,0,0,203,0.0,10,10,8333.0,723,9,999999999,79,0.2200,0,88,0.160,0.0,0.0
2016,7,21,4,8,?9?9?9?9E0?9?9?9*9*9?9?9?9?9?9?9*9?9*9*9?9*9,21.90,21.40,97,95720,0,0,387,0,0,0,0,0,0,0,203,0.0,10,10,8333.0,723,9,999999999,79,0.2200,0,88,0.160,0.0,0.0
2016,7,21,4,9,?9?9?9?9E0?9?9?9*9*9?9?9?9?9?9?9*9?9*9*9?9*9,21.90,21.40,97,95720,0,0,387,0,0,0,0,0,0,0,203,0.0,10,10,8333.0,723,9,999999999,79,0.2200,0,88,0.160,0.0,0.0
2016,7,21,4,10,?9?9?9?9E0?9?9?9*9*9?9?9?9?9?9?9*9?9*9*9?9*9,21.90,21.40,97,95720,0,0,387,0,0,0,0,0,0,0,203,0.0,10,10,8333.0,723,9,999999999,79,0.2200,0,88,0.160,0.0,0.0
2016,7,21,4,11,?9?9?9?9E0?9?9?9*9*9?9?9?9?9?9?9*9?9*9*9?9*9,21.90,21.40,97,95720,0,0,387,0,0,0,0,0,0,0,203,0.0,10,10,8333.0,723,9,999999999,79,0.2200,0,88,0.160,0.0,0.0
2016,7,21,4,12,?9?9?9?9E0?9?9?9*9*9?9?9?9?9?9?9*9?9*9*9?9*9,21.90,21.40,97,95720,0,0,387,0,0,0,0,0,0,0,203,0.0,10,10,8333.0,723,9,999999999,79,0.2200,0,88,0.160,0.0,0.0
2016,7,21,4,13,?9?9?9?9E0?9?9?9*9*9?9?9?9?9?9?9*9?9*9*9?9*9,21.90,21.40,97,95720,0,0,387,0,0,0,0,0,0,0,203,0.0,10,10,8333.0,723,9,999999999,79,0.2200,0,88,0.160,0.0,0.0
2016,7,21,4,14,?9?9?9?9E0?9?9?9*9*9?9?9?9?9?9?9*9?9*9*9?9*9,21.90,21.40,97,95720,0,0,387,0,0,0,0,0,0,0,203,0.0,10,10,8333.0,723,9,999999999,79,0.2200,0,88,0.160,0.0,0.0
2016,7,21,4,15,?9?9?9?9E0?9?9?9*9*9?9?9?9?9?9?9*9?9*9*9?9*9,21.90,21.40,97,95720,0,0,387,0,0,0,0,0,0,0,203,0.0,10,10,8333.0,723,9,999999999,79,0.2200,0,88,0.160,0.0,0.0
2016,7,21,4,16,?9?9?9?9E0?9?9?9*9*9?9?9?9?9?9?9*9?9*9*9?9*9,21.90,21.40,97,95720,0,0,387,0,0,0,0,0,0,0,203,0.0,10,10,8333.0,723,9,999999999,79,0.2200,0,88,0.160,0.0,0.0
2016,7,21,4,17,?9?9?9?9E0?9?9?9*9*9?9?9?9?9?9?9*9?9*9*9?9*9,21.90,21.40,97,95720,0,0,387,0,0,0,0,0,0,0,203,0.0,10,10,8333.0,723,9,999999999,79,0.2200,0,88,0.160,0.0,0.0
2016,7,21,4,18,?9?9?9?9E0?9?9?9*9*9?9?9?9?9?9?9*9?9*9*9?9*9,21.90,21.40,97,95720,0,0,387,0,0,0,0,0,0,0,203,0.0,10,10,8333.0,723,9,999999999,79,0.2200,0,88,0.160,0.0,0.0
2016,7,21,4,19,?9?9?9?9E0?9?9?9*9*9?9?9?9?9?9?9*9?9*9*9?9*9,21.90,21.40,97,95720,0,0,387,0,0,0,0,0,0,0,203,0.0,10,10,8333.0,723,9,999999999,79,0.2200,0,88,0.160,0.0,0.0
2016,7,21,4,20,?9?9?9?9E0?9?9?9*9*9?9?9?9?9?9?9*9?9*9*9?9*9,21.90,21.40,97,95720,0,0,387,0,0,0,0,0,0,0,203,0.0,10,10,8333.0,723,9,999999999,79,0.2200,0,88,0.160,0.0,0.0
2016,7,21,4,21,?9?9?9?9E0?9?9?9*9*9?9?9?9?9?9?9*9?9*9*9?9*9,21.90,21.40,97,95720,0,0,387,0,0,0,0,0,0,0,203,0.0,10,10,8333.0,723,9,999999999,79,0.2200,0,88,0.160,0.0,0.0
2016,7,21,4,22,?9?9?9?9E0?9?9?9*9*9?9?9?9?9?9?9*9?9*9*9?9*9,21.90,21.40,97,95720,0,0,387,0,0,0,0,0,0,0,203,0.0,10,10,8333.0,723,9,999999999,79,0.2200,0,88,0.160,0.0,0.0
2016,7,21,4,23,?9?9?9?9E0?9?9?9*9*9?9?9?9?9?9?9*9?9*9*9?9*9,21.90,21.40,97,95720,0,0,387,0,0,0,0,0,0,0,203,0.0,10,10,8333.0,723,9,999999999,79,0.2200,0,88,0.160,0.0,0.0
2016,7,21,4,24,?9?9?9?9E0?9?9?9*9*9?9?9?9?9?9?9*9?9*9*9?9*9,21.90,21.40,97,95720,0,0,387,0,0,0,0,0,0,0,203,0.0,10,10,8333.0,723,9,999999999,79,0.2200,0,88,0.160,0.0,0.0
2016,7,21,4,25,?9?9?9?9E0?9?9?9*9*9?9?9?9?9?9?9*9?9*9*9?9*9,21.90,21.40,97,95720,0,0,387,0,0,0,0,0,0,0,203,0.0,10,10,8333.0,723,9,999999999,79,0.2200,0,88,0.160,0.0,0.0
2016,7,21,4,26,?9?9?9?9E0?9?9?9*9*9?9?9?9?9?9?9*9?9*9*9?9*9,21.90,21.40,97,95720,0,0,387,0,0,0,0,0,0,0,203,0.0,10,10,8333.0,723,9,999999999,79,0.2200,0,88,0.160,0.0,0.0
2016,7,21,4,27,?9?9?9?9E0?9?9?9*9*9?9?9?9?9?9?9*9?9*9*9?9*9,21.90,21.40,97,95720,0,0,387,0,0,0,0,0,0,0,203,0.0,10,10,8333.0,723,9,999999999,79,0.2200,0,88,0.160,0.0,0.0
2016,7,21,4,28,?9?9?9?9E0?9?9?9*9*9?9?9?9?9?9?9*9?9*9*9?9*9,21.90,21.40,97,95720,0,0,387,0,0,0,0,0,0,0,203,0.0,10,10,8333.0,723,9,999999999,79,0.2200,0,88,0.160,0.0,0.0
2016,7,21,4,29,?9?9?9?9E0?9?9?9*9*9?9?9?9?9?9?9*9?9*9*9?9*9,21.90,21.40,97,95720,0,0,387,0,0,0,0,0,0,0,203,0.0,10,10,8333.0,723,9,999999999,79,0.2200,0,88,0.160,0.0,0.0
2016,7,21,4,30,?9?9?9?9E0?9?9?9*9*9?9?9?9?9?9?9*9?9*9*9?9*9,21.90,21.40,97,95720,0,0,387,0,0,0,0,0,0,0,203,0.0,10,10,8333.0,723,9,999999999,79,0.2200,0,88,0.160,0.0,0.0
2016,7,21,4,31,?9?9?9?9E0?9?9?9*9*9?9?9?9?9?9?9*9?9*9*9?9*9,21.90,21.40,97,95720,0,0,387,0,0,0,0,0,0,0,203,0.0,10,10,8333.0,723,9,999999999,79,0.2200,0,88,0.160,0.0,0.0
2016,7,21,4,32,?9?9?9?9E0?9?9?9*9*9?9?9?9?9?9?9*9?9*9*9?9*9,21.90,21.40,97,95720,0,0,387,0,0,0,0,0,0,0,203,0.0,10,10,8333.0,723,9,999999999,79,0.2200,0,88,0.160,0.0,0.0
2016,7,21,4,33,?9?9?9?9E0?9?9?9*9*9?9?9?9?9?9?9*9?9*9*9?9*9,21.90,21.40,97,95720,0,0,387,0,0,0,0,0,0,0,203,0.0,10,10,8333.0,723,9,999999999,79,0.2200,0,88,0.160,0.0,0.0
2016,7,21,4,34,?9?9?9?9E0?9?9?9*9*9?9?9?9?9?9?9*9?9*9*9?9*9,21.90,21.40,97,95720,0,0,387,0,0,0,0,0,0,0,203,0.0,10,10,8333.0,723,9,999999999,79,0.2200,0,88,0.160,0.0,0.0
2016,7,21,4,35,?9?9?9?9E0?9?9?9*9*9?9?9?9?9?9?9*9?9*9*9?9*9,21.90,21.40,97,95720,0,0,387,0,0,0,0,0,0,0,203,0.0,10,10,8333.0,723,9,999999999,79,0.2200,0,88,0.160,0.0,0.0
2016,7,21,4,36,?9?9?9?9E0?9?9?9*9*9?9?9?9?9?9?9*9?9*9*9?9*9,21.90,21.40,97,95720,0,0,387,0,0,0,0,0,0,0,203,0.0,10,10,8333.0,723,9,999999999,79,0.2200,0,88,0.160,0.0,0.0
2016,7,21,4,37,?9?9?9?9E0?9?9?9*9*9?9?9?9?9?9?9*9?9*9*9?9*9,21.90,21.40,97,95720,0,0,387,0,0,0,0,0,0,0,203,0.0,10,10,8333.0,723,9,999999999,79,0.2200,0,88,0.160,0.0,0.0
2016,7,21,4,38,?9?9?9?9E0?9?9?9*9*9?9?9?9?9?9?9*9?9*9*9?9*9,21.90,21.40,97,95720,0,0,387,0,0,0,0,0,0,0,203,0.0,10,10,8333.0,723,9,999999999,79,0.2200,0,88,0.160,0.0,0.0
2016,7,21,4,39,?9?9?9?9E0?9?9?9*9*9?9?9?9?9?9?9*9?9*9*9?9*9,21.90,21.40,97,95720,0,0,387,0,0,0,0,0,0,0,203,0.0,10,10,8333.0,723,9,999999999,79,0.2200,0,88,0.160,0.0,0.0
2016,7,21,4,40,?9?9?9?9E0?9?9?9*9*9?9?9?9?9?9?9*9?9*9*9?9*9,21.90,21.40,97,95720,0,0,387,0,0,0,0,0,0,0,203,0.0,10,10,8333.0,723,9,999999999,79,0.2200,0,88,0.160,0.0,0.0
2016,7,21,4,41,?9?9?9?9E0?9?9?9*9*9?9?9?9?9?9?9*9?9*9*9?9*9,21.90,21.40,97,95720,0,0,387,0,0,0,0,0,0,0,203,0.0,10,10,8333.0,723,9,999999999,79,0.2200,0,88,0.160,0.0,0.0
2016,7,21,4,42,?9?9?9?9E0?9?9?9*9*9?9?9?9?9?9?9*9?9*9*9?9*9,21.90,21.40,97,95720,0,0,387,0,0,0,0,0,0,0,203,0.0,10,10,8333.0,723,9,999999999,79,0.2200,0,88,0.160,0.0,0.0
2016,7,21,4,43,?9?9?9?9E0?9?9?9*9*9?9?9?9?9?9?9*9?9*9*9?9*9,21.90,21.40,97,95720,0,0,387,0,0,0,0,0,0,0,203,0.0,10,10,8333.0,723,9,999999999,79,0.2200,0,88,0.160,0.0,0.0
2016,7,21,4,44,?9?9?9?9E0?9?9?9*9*9?9?9?9?9?9?9*9?9*9*9?9*9,21.90,21.40,97,95720,0,0,387,0,0,0,0,0,0,0,203,0.0,10,10,8333.0,723,9,999999999,79,0.2200,0,88,0.160,0.0,0.0
2016,7,21,4,45,?9?9?9?9E0?9?9?9*9*9?9?9?9?9?9?9*9?9*9*9?9*9,21.90,21.40,97,95720,0,0,387,0,0,0,0,0,0,0,203,0.0,10,10,8333.0,723,9,999999999,79,0.2200,0,88,0.160,0.0,0.0
2016,7,21,4,46,?9?9?9?9E0?9?9?9*9*9?9?9?9?9?9?9*9?9*9*9?9*9,21.90,21.40,97,95720,0,0,387,0,0,0,0,0,0,0,203,0.0,10,10,8333.0,723,9,999999999,79,0.2200,0,88,0.160,0.0,0.0
2016,7,21,4,47,?9?9?9?9E0?9?9?9*9*9?9?9?9?9?9?9*9?9*9*9?9*9,21.90,21.40,97,95720,0,0,387,0,0,0,0,0,0,0,203,0.0,10,10,8333.0,723,9,999999999,79,0.2200,0,88,0.160,0.0,0.0
2016,7,21,4,48,?9?9?9?9E0?9?9?9*9*9?9?9?9?9?9?9*9?9*9*9?9*9,21.90,21.40,97,95720,0,0,387,0,0,0,0,0,0,0,203,0.0,10,10,8333.0,723,9,999999999,79,0.2200,0,88,0.160,0.0,0.0
2016,7,21,4,49,?9?9?9?9E0?9?9?9*9*9?9?9?9?9?9?9*9?9*9*9?9*9,21.90,21.40,97,95720,0,0,387,0,0,0,0,0,0,0,203,0.0,10,10,8333.0,723,9,999999999,79,0.2200,0,88,0.160,0.0,0.0
2016,7,21,4,50,?9?9?9?9E0?9?9?9*9*9?9?9?9?9?9?9*9?9*9*9?9*9,21.90,21.40,97,95720,0,0,387,0,0,0,0,0,0,0,203,0.0,10,10,8333.0,723,9,999999999,79,0.2200,0,88,0.160,0.0,0.0
2016,7,21,4,51,?9?9?9?9E0?9?9?9*9*9?9?9?9?9?9?9*9?9*9*9?9*9,21.90,21.40,97,95720,0,0,387,0,0,0,0,0,0,0,203,0.0,10,10,8333.0,723,9,999999999,79,0.2200,0,88,0.160,0.0,0.0
2016,7,21,4,52,?9?9?9?9E0?9?9?9*9*9?9?9?9?9?9?9*9?9*9*9?9*9,21.90,21.40,97,95720,0,0,387,0,0,0,0,0,0,0,203,0.0,10,10,8333.0,723,9,999999999,79,0.2200,0,88,0.160,0.0,0.0
2016,7,21,4,53,?9?9?9?9E0?9?9?9*9*9?9?9?9?9?9?9*9?9*9*9?9*9,21.90,21.40,97,95720,0,0,387,0,0,0,0,0,0,0,203,0.0,10,10,8333.0,723,9,999999999,79,0.2200,0,88,0.160,0.0,0.0
2016,7,21,4,54,?9?9?9?9E0?9?9?9*9*9?9?9?9?9?9?9*9?9*9*9?9*9,21.90,21.40,97,95720,0,0,387,0,0,0,0,0,0,0,203,0.0,10,10,8333.0,723,9,999999999,79,0.2200,0,88,0.160,0.0,0.0
2016,7,21,4,55,?9?9?9?9E0?9?9?9*9*9?9?9?9?9?9?9*9?9*9*9?9*9,21.90,21.40,97,95720,0,0,387,0,0,0,0,0,0,0,203,0.0,10,10,8333.0,723,9,999999999,79,0.2200,0,88,0.160,0.0,0.0
2016,7,21,4,56,?9?9?9?9E0?9?9?9*9*9?9?9?9?9?9?9*9?9*9*9?9*9,21.90,21.40,97,95720,0,0,387,0,0,0,0,0,0,0,203,0.0,10,10,8333.0,723,9,999999999,79,0.2200,0,88,0.160,0.0,0.0
2016,7,21,4,57,?9?9?9?9E0?9?9?9*9*9?9?9?9?9?9?9*9?9*9*9?9*9,21.90,21.40,97,95720,0,0,387,0,0,0,0,0,0,0,203,0.0,10,10,8333.0,723,9,999999999,79,0.2200,0,88,0.160,0.0,0.0
2016,7,21,4,58,?9?9?9?9E0?9?9?9*9*9?9?9?9?9?9?9*9?9*9*9?9*9,21.90,21.40,97,95720,0,0,387,0,0,0,0,0,0,0,203,0.0,10,10,8333.0,723,9,999999999,79,0.2200,0,88,0.160,0.0,0.0
2016,7,21,4,59,?9?9?9?9E0?9?9?9*9*9?9?9?9?9?9?9*9?9*9*9?9*9,21.90,21.40,97,95720,0,0,387,0,0,0,0,0,0,0,203,0.0,10,10,8333.0,723,9,999999999,79,0.2200,0,88,0.160,0.0,0.0
2016,7,21,4,60,?9?9?9?9E0?9?9?9*9*9?9?9?9?9?9?9*9?9*9*9?9*9,21.90,21.40,97,95720,0,0,387,0,0,0,0,0,0,0,203,0.0,10,10,8333.0,723,9,999999999,79,0.2200,0,88,0.160,0.0,0.0
2016,7,21,5,1,?9?9?9?9E0?9?9?9*9*9?9?9?9?9?9?9*9?9*9*9?9*9,21.90,21.10,95,95593,0,0,382,0,0,0,0,0,0,0,201,0.0,10,10,8333.0,482,9,999999999,76,0.2200,0,88,0.160,0.0,0.0
2016,7,21,5,2,?9?9?9?9E0?9?9?9*9*9?9?9?9?9?9?9*9?9*9*9?9*9,21.90,21.10,95,95593,0,0,382,0,0,0,0,0,0,0,201,0.0,10,10,8333.0,482,9,999999999,76,0.2200,0,88,0.160,0.0,0.0
2016,7,21,5,3,?9?9?9?9E0?9?9?9*9*9?9?9?9?9?9?9*9?9*9*9?9*9,21.90,21.10,95,95593,0,0,382,0,0,0,0,0,0,0,201,0.0,10,10,8333.0,482,9,999999999,76,0.2200,0,88,0.160,0.0,0.0
2016,7,21,5,4,?9?9?9?9E0?9?9?9*9*9?9?9?9?9?9?9*9?9*9*9?9*9,21.90,21.10,95,95593,0,0,382,0,0,0,0,0,0,0,201,0.0,10,10,8333.0,482,9,999999999,76,0.2200,0,88,0.160,0.0,0.0
2016,7,21,5,5,?9?9?9?9E0?9?9?9*9*9?9?9?9?9?9?9*9?9*9*9?9*9,21.90,21.10,95,95593,0,0,382,0,0,0,0,0,0,0,201,0.0,10,10,8333.0,482,9,999999999,76,0.2200,0,88,0.160,0.0,0.0
2016,7,21,5,6,?9?9?9?9E0?9?9?9*9*9?9?9?9?9?9?9*9?9*9*9?9*9,21.90,21.10,95,95593,0,0,382,0,0,0,0,0,0,0,201,0.0,10,10,8333.0,482,9,999999999,76,0.2200,0,88,0.160,0.0,0.0
2016,7,21,5,7,?9?9?9?9E0?9?9?9*9*9?9?9?9?9?9?9*9?9*9*9?9*9,21.90,21.10,95,95593,0,0,382,0,0,0,0,0,0,0,201,0.0,10,10,8333.0,482,9,999999999,76,0.2200,0,88,0.160,0.0,0.0
2016,7,21,5,8,?9?9?9?9E0?9?9?9*9*9?9?9?9?9?9?9*9?9*9*9?9*9,21.90,21.10,95,95593,0,0,382,0,0,0,0,0,0,0,201,0.0,10,10,8333.0,482,9,999999999,76,0.2200,0,88,0.160,0.0,0.0
2016,7,21,5,9,?9?9?9?9E0?9?9?9*9*9?9?9?9?9?9?9*9?9*9*9?9*9,21.90,21.10,95,95593,0,0,382,0,0,0,0,0,0,0,201,0.0,10,10,8333.0,482,9,999999999,76,0.2200,0,88,0.160,0.0,0.0
2016,7,21,5,10,?9?9?9?9E0?9?9?9*9*9?9?9?9?9?9?9*9?9*9*9?9*9,21.90,21.10,95,95593,0,0,382,0,0,0,0,0,0,0,201,0.0,10,10,8333.0,482,9,999999999,76,0.2200,0,88,0.160,0.0,0.0
2016,7,21,5,11,?9?9?9?9E0?9?9?9*9*9?9?9?9?9?9?9*9?9*9*9?9*9,21.90,21.10,95,95593,0,0,382,0,0,0,0,0,0,0,201,0.0,10,10,8333.0,482,9,999999999,76,0.2200,0,88,0.160,0.0,0.0
2016,7,21,5,12,?9?9?9?9E0?9?9?9*9*9?9?9?9?9?9?9*9?9*9*9?9*9,21.90,21.10,95,95593,0,0,382,0,0,0,0,0,0,0,201,0.0,10,10,8333.0,482,9,999999999,76,0.2200,0,88,0.160,0.0,0.0
2016,7,21,5,13,?9?9?9?9E0?9?9?9*9*9?9?9?9?9?9?9*9?9*9*9?9*9,21.90,21.10,95,95593,0,0,382,0,0,0,0,0,0,0,201,0.0,10,10,8333.0,482,9,999999999,76,0.2200,0,88,0.160,0.0,0.0
2016,7,21,5,14,?9?9?9?9E0?9?9?9*9*9?9?9?9?9?9?9*9?9*9*9?9*9,21.90,21.10,95,95593,0,0,382,0,0,0,0,0,0,0,201,0.0,10,10,8333.0,482,9,999999999,76,0.2200,0,88,0.160,0.0,0.0
2016,7,21,5,15,?9?9?9?9E0?9?9?9*9*9?9?9?9?9?9?9*9?9*9*9?9*9,21.90,21.10,95,95593,0,0,382,0,0,0,0,0,0,0,201,0.0,10,10,8333.0,482,9,999999999,76,0.2200,0,88,0.160,0.0,0.0
2016,7,21,5,16,?9?9?9?9E0?9?9?9*9*9?9?9?9?9?9?9*9?9*9*9?9*9,21.90,21.10,95,95593,0,0,382,0,0,0,0,0,0,0,201,0.0,10,10,8333.0,482,9,999999999,76,0.2200,0,88,0.160,0.0,0.0
2016,7,21,5,17,?9?9?9?9E0?9?9?9*9*9?9?9?9?9?9?9*9?9*9*9?9*9,21.90,21.10,95,95593,0,0,382,0,0,0,0,0,0,0,201,0.0,10,10,8333.0,482,9,999999999,76,0.2200,0,88,0.160,0.0,0.0
2016,7,21,5,18,?9?9?9?9E0?9?9?9*9*9?9?9?9?9?9?9*9?9*9*9?9*9,21.90,21.10,95,95593,0,0,382,0,0,0,0,0,0,0,201,0.0,10,10,8333.0,482,9,999999999,76,0.2200,0,88,0.160,0.0,0.0
2016,7,21,5,19,?9?9?9?9E0?9?9?9*9*9?9?9?9?9?9?9*9?9*9*9?9*9,21.90,21.10,95,95593,0,0,382,0,0,0,0,0,0,0,201,0.0,10,10,8333.0,482,9,999999999,76,0.2200,0,88,0.160,0.0,0.0
2016,7,21,5,20,?9?9?9?9E0?9?9?9*9*9?9?9?9?9?9?9*9?9*9*9?9*9,21.90,21.10,95,95593,0,0,382,0,0,0,0,0,0,0,201,0.0,10,10,8333.0,482,9,999999999,76,0.2200,0,88,0.160,0.0,0.0
2016,7,21,5,21,?9?9?9?9E0?9?9?9*9*9?9?9?9?9?9?9*9?9*9*9?9*9,21.90,21.10,95,95593,0,0,382,0,0,0,0,0,0,0,201,0.0,10,10,8333.0,482,9,999999999,76,0.2200,0,88,0.160,0.0,0.0
2016,7,21,5,22,?9?9?9?9E0?9?9?9*9*9?9?9?9?9?9?9*9?9*9*9?9*9,21.90,21.10,95,95593,0,0,382,0,0,0,0,0,0,0,201,0.0,10,10,8333.0,482,9,999999999,76,0.2200,0,88,0.160,0.0,0.0
2016,7,21,5,23,?9?9?9?9E0?9?9?9*9*9?9?9?9?9?9?9*9?9*9*9?9*9,21.90,21.10,95,95593,0,0,382,0,0,0,0,0,0,0,201,0.0,10,10,8333.0,482,9,999999999,76,0.2200,0,88,0.160,0.0,0.0
2016,7,21,5,24,?9?9?9?9E0?9?9?9*9*9?9?9?9?9?9?9*9?9*9*9?9*9,21.90,21.10,95,95593,0,0,382,0,0,0,0,0,0,0,201,0.0,10,10,8333.0,482,9,999999999,76,0.2200,0,88,0.160,0.0,0.0
2016,7,21,5,25,?9?9?9?9E0?9?9?9*9*9?9?9?9?9?9?9*9?9*9*9?9*9,21.90,21.10,95,95593,0,0,382,0,0,0,0,0,0,0,201,0.0,10,10,8333.0,482,9,999999999,76,0.2200,0,88,0.160,0.0,0.0
2016,7,21,5,26,?9?9?9?9E0?9?9?9*9*9?9?9?9?9?9?9*9?9*9*9?9*9,21.90,21.10,95,95593,0,0,382,0,0,0,0,0,0,0,201,0.0,10,10,8333.0,482,9,999999999,76,0.2200,0,88,0.160,0.0,0.0
2016,7,21,5,27,?9?9?9?9E0?9?9?9*9*9?9?9?9?9?9?9*9?9*9*9?9*9,21.90,21.10,95,95593,0,0,382,0,0,0,0,0,0,0,201,0.0,10,10,8333.0,482,9,999999999,76,0.2200,0,88,0.160,0.0,0.0
2016,7,21,5,28,?9?9?9?9E0?9?9?9*9*9?9?9?9?9?9?9*9?9*9*9?9*9,21.90,21.10,95,95593,0,0,382,0,0,0,0,0,0,0,201,0.0,10,10,8333.0,482,9,999999999,76,0.2200,0,88,0.160,0.0,0.0
2016,7,21,5,29,?9?9?9?9E0?9?9?9*9*9?9?9?9?9?9?9*9?9*9*9?9*9,21.90,21.10,95,95593,0,0,382,0,0,0,0,0,0,0,201,0.0,10,10,8333.0,482,9,999999999,76,0.2200,0,88,0.160,0.0,0.0
2016,7,21,5,30,?9?9?9?9E0?9?9?9*9*9?9?9?9?9?9?9*9?9*9*9?9*9,21.90,21.10,95,95593,0,0,382,0,0,0,0,0,0,0,201,0.0,10,10,8333.0,482,9,999999999,76,0.2200,0,88,0.160,0.0,0.0
2016,7,21,5,31,?9?9?9?9E0?9?9?9*9*9?9?9?9?9?9?9*9?9*9*9?9*9,21.90,21.10,95,95593,0,0,382,0,0,0,0,0,0,0,201,0.0,10,10,8333.0,482,9,999999999,76,0.2200,0,88,0.160,0.0,0.0
2016,7,21,5,32,?9?9?9?9E0?9?9?9*9*9?9?9?9?9?9?9*9?9*9*9?9*9,21.90,21.10,95,95593,0,0,382,0,0,0,0,0,0,0,201,0.0,10,10,8333.0,482,9,999999999,76,0.2200,0,88,0.160,0.0,0.0
2016,7,21,5,33,?9?9?9?9E0?9?9?9*9*9?9?9?9?9?9?9*9?9*9*9?9*9,21.90,21.10,95,95593,0,0,382,0,0,0,0,0,0,0,201,0.0,10,10,8333.0,482,9,999999999,76,0.2200,0,88,0.160,0.0,0.0
2016,7,21,5,34,?9?9?9?9E0?9?9?9*9*9?9?9?9?9?9?9*9?9*9*9?9*9,21.90,21.10,95,95593,0,0,382,0,0,0,0,0,0,0,201,0.0,10,10,8333.0,482,9,999999999,76,0.2200,0,88,0.160,0.0,0.0
2016,7,21,5,35,?9?9?9?9E0?9?9?9*9*9?9?9?9?9?9?9*9?9*9*9?9*9,21.90,21.10,95,95593,0,0,382,0,0,0,0,0,0,0,201,0.0,10,10,8333.0,482,9,999999999,76,0.2200,0,88,0.160,0.0,0.0
2016,7,21,5,36,?9?9?9?9E0?9?9?9*9*9?9?9?9?9?9?9*9?9*9*9?9*9,21.90,21.10,95,95593,0,0,382,0,0,0,0,0,0,0,201,0.0,10,10,8333.0,482,9,999999999,76,0.2200,0,88,0.160,0.0,0.0
2016,7,21,5,37,?9?9?9?9E0?9?9?9*9*9?9?9?9?9?9?9*9?9*9*9?9*9,21.90,21.10,95,95593,0,0,382,0,0,0,0,0,0,0,201,0.0,10,10,8333.0,482,9,999999999,76,0.2200,0,88,0.160,0.0,0.0
2016,7,21,5,38,?9?9?9?9E0?9?9?9*9*9?9?9?9?9?9?9*9?9*9*9?9*9,21.90,21.10,95,95593,0,0,382,0,0,0,0,0,0,0,201,0.0,10,10,8333.0,482,9,999999999,76,0.2200,0,88,0.160,0.0,0.0
2016,7,21,5,39,?9?9?9?9E0?9?9?9*9*9?9?9?9?9?9?9*9?9*9*9?9*9,21.90,21.10,95,95593,0,0,382,0,0,0,0,0,0,0,201,0.0,10,10,8333.0,482,9,999999999,76,0.2200,0,88,0.160,0.0,0.0
2016,7,21,5,40,?9?9?9?9E0?9?9?9*9*9?9?9?9?9?9?9*9?9*9*9?9*9,21.90,21.10,95,95593,0,0,382,0,0,0,0,0,0,0,201,0.0,10,10,8333.0,482,9,999999999,76,0.2200,0,88,0.160,0.0,0.0
2016,7,21,5,41,?9?9?9?9E0?9?9?9*9*9?9?9?9?9?9?9*9?9*9*9?9*9,21.90,21.10,95,95593,0,0,382,0,0,0,0,0,0,0,201,0.0,10,10,8333.0,482,9,999999999,76,0.2200,0,88,0.160,0.0,0.0
2016,7,21,5,42,?9?9?9?9E0?9?9?9*9*9?9?9?9?9?9?9*9?9*9*9?9*9,21.90,21.10,95,95593,0,0,382,0,0,0,0,0,0,0,201,0.0,10,10,8333.0,482,9,999999999,76,0.2200,0,88,0.160,0.0,0.0
2016,7,21,5,43,?9?9?9?9E0?9?9?9*9*9?9?9?9?9?9?9*9?9*9*9?9*9,21.90,21.10,95,95593,0,0,382,0,0,0,0,0,0,0,201,0.0,10,10,8333.0,482,9,999999999,76,0.2200,0,88,0.160,0.0,0.0
2016,7,21,5,44,?9?9?9?9E0?9?9?9*9*9?9?9?9?9?9?9*9?9*9*9?9*9,21.90,21.10,95,95593,0,0,382,0,0,0,0,0,0,0,201,0.0,10,10,8333.0,482,9,999999999,76,0.2200,0,88,0.160,0.0,0.0
2016,7,21,5,45,?9?9?9?9E0?9?9?9*9*9?9?9?9?9?9?9*9?9*9*9?9*9,21.90,21.10,95,95593,0,0,382,0,0,0,0,0,0,0,201,0.0,10,10,8333.0,482,9,999999999,76,0.2200,0,88,0.160,0.0,0.0
2016,7,21,5,46,?9?9?9?9E0?9?9?9*9*9?9?9?9?9?9?9*9?9*9*9?9*9,21.90,21.10,95,95593,0,0,382,0,0,0,0,0,0,0,201,0.0,10,10,8333.0,482,9,999999999,76,0.2200,0,88,0.160,0.0,0.0
2016,7,21,5,47,?9?9?9?9E0?9?9?9*9*9?9?9?9?9?9?9*9?9*9*9?9*9,21.90,21.10,95,95593,0,0,382,0,0,0,0,0,0,0,201,0.0,10,10,8333.0,482,9,999999999,76,0.2200,0,88,0.160,0.0,0.0
2016,7,21,5,48,?9?9?9?9E0?9?9?9*9*9?9?9?9?9?9?9*9?9*9*9?9*9,21.90,21.10,95,95593,0,0,382,0,0,0,0,0,0,0,201,0.0,10,10,8333.0,482,9,999999999,76,0.2200,0,88,0.160,0.0,0.0
2016,7,21,5,49,?9?9?9?9E0?9?9?9*9*9?9?9?9?9?9?9*9?9*9*9?9*9,21.90,21.10,95,95593,0,0,382,0,0,0,0,0,0,0,201,0.0,10,10,8333.0,482,9,999999999,76,0.2200,0,88,0.160,0.0,0.0
2016,7,21,5,50,?9?9?9?9E0?9?9?9*9*9?9?9?9?9?9?9*9?9*9*9?9*9,21.90,21.10,95,95593,0,0,382,0,0,0,0,0,0,0,201,0.0,10,10,8333.0,482,9,999999999,76,0.2200,0,88,0.160,0.0,0.0
2016,7,21,5,51,?9?9?9?9E0?9?9?9*9*9?9?9?9?9?9?9*9?9*9*9?9*9,21.90,21.10,95,95593,0,0,382,0,0,0,0,0,0,0,201,0.0,10,10,8333.0,482,9,999999999,76,0.2200,0,88,0.160,0.0,0.0
2016,7,21,5,52,?9?9?9?9E0?9?9?9*9*9?9?9?9?9?9?9*9?9*9*9?9*9,21.90,21.10,95,95593,0,0,382,0,0,0,0,0,0,0,201,0.0,10,10,8333.0,482,9,999999999,76,0.2200,0,88,0.160,0.0,0.0
2016,7,21,5,53,?9?9?9?9E0?9?9?9*9*9?9?9?9?9?9?9*9?9*9*9?9*9,21.90,21.10,95,95593,0,0,382,0,0,0,0,0,0,0,201,0.0,10,10,8333.0,482,9,999999999,76,0.2200,0,88,0.160,0.0,0.0
2016,7,21,5,54,?9?9?9?9E0?9?9?9*9*9?9?9?9?9?9?9*9?9*9*9?9*9,21.90,21.10,95,95593,0,0,382,0,0,0,0,0,0,0,201,0.0,10,10,8333.0,482,9,999999999,76,0.2200,0,88,0.160,0.0,0.0
2016,7,21,5,55,?9?9?9?9E0?9?9?9*9*9?9?9?9?9?9?9*9?9*9*9?9*9,21.90,21.10,95,95593,0,0,382,0,0,0,0,0,0,0,201,0.0,10,10,8333.0,482,9,999999999,76,0.2200,0,88,0.160,0.0,0.0
2016,7,21,5,56,?9?9?9?9E0?9?9?9*9*9?9?9?9?9?9?9*9?9*9*9?9*9,21.90,21.10,95,95593,0,0,382,0,0,0,0,0,0,0,201,0.0,10,10,8333.0,482,9,999999999,76,0.2200,0,88,0.160,0.0,0.0
2016,7,21,5,57,?9?9?9?9E0?9?9?9*9*9?9?9?9?9?9?9*9?9*9*9?9*9,21.90,21.10,95,95593,0,0,382,0,0,0,0,0,0,0,201,0.0,10,10,8333.0,482,9,999999999,76,0.2200,0,88,0.160,0.0,0.0
2016,7,21,5,58,?9?9?9?9E0?9?9?9*9*9?9?9?9?9?9?9*9?9*9*9?9*9,21.90,21.10,95,95593,0,0,382,0,0,0,0,0,0,0,201,0.0,10,10,8333.0,482,9,999999999,76,0.2200,0,88,0.160,0.0,0.0
2016,7,21,5,59,?9?9?9?9E0?9?9?9*9*9?9?9?9?9?9?9*9?9*9*9?9*9,21.90,21.10,95,95593,0,0,382,0,0,0,0,0,0,0,201,0.0,10,10,8333.0,482,9,999999999,76,0.2200,0,88,0.160,0.0,0.0
2016,7,21,5,60,?9?9?9?9E0?9?9?9*9*9?9?9?9?9?9?9*9?9*9*9?9*9,21.90,21.10,95,95593,0,0,382,0,0,0,0,0,0,0,201,0.0,10,10,8333.0,482,9,999999999,76,0.2200,0,88,0.160,0.0,0.0
2016,7,21,6,1,?9?9?9?9E0?9?9?9?9?9?9?9?9?9?9?9*9?9*9*9?9*9,21.80,20.70,93,95465,0,0,377,0,0,0,0,0,0,0,198,0.0,5,5,8333.0,801,9,999999999,73,0.2200,0,88,0.160,0.0,0.0
2016,7,21,6,2,?9?9?9?9E0?9?9?9?9?9?9?9?9?9?9?9*9?9*9*9?9*9,21.80,20.70,93,95465,0,0,377,1,3,0,0,0,0,0,198,0.0,5,5,8333.0,801,9,999999999,73,0.2200,0,88,0.160,0.0,0.0
2016,7,21,6,3,?9?9?9?9E0?9?9?9?9?9?9?9?9?9?9?9*9?9*9*9?9*9,21.80,20.70,93,95465,0,0,377,3,6,0,0,0,0,0,198,0.0,5,5,8333.0,801,9,999999999,73,0.2200,0,88,0.160,0.0,0.0
2016,7,21,6,4,?9?9?9?9E0?9?9?9?9?9?9?9?9?9?9?9*9?9*9*9?9*9,21.80,20.70,93,95465,0,0,377,4,10,0,0,0,0,0,198,0.0,5,5,8333.0,801,9,999999999,73,0.2200,0,88,0.160,0.0,0.0
2016,7,21,6,5,?9?9?9?9E0?9?9?9?9?9?9?9?9?9?9?9*9?9*9*9?9*9,21.80,20.70,93,95465,0,0,377,5,13,0,0,0,0,0,198,0.0,5,5,8333.0,801,9,999999999,73,0.2200,0,88,0.160,0.0,0.0
2016,7,21,6,6,?9?9?9?9E0?9?9?9?9?9?9?9?9?9?9?9*9?9*9*9?9*9,21.80,20.70,93,95465,0,0,377,6,16,0,0,0,0,0,198,0.0,5,5,8333.0,801,9,999999999,73,0.2200,0,88,0.160,0.0,0.0
2016,7,21,6,7,?9?9?9?9E0?9?9?9?9?9?9?9?9?9?9?9*9?9*9*9?9*9,21.80,20.70,93,95465,0,0,377,8,20,0,0,0,0,0,198,0.0,5,5,8333.0,801,9,999999999,73,0.2200,0,88,0.160,0.0,0.0
2016,7,21,6,8,?9?9?9?9E0?9?9?9?9?9?9?9?9?9?9?9*9?9*9*9?9*9,21.80,20.70,93,95465,0,0,377,9,23,0,0,0,0,0,198,0.0,5,5,8333.0,801,9,999999999,73,0.2200,0,88,0.160,0.0,0.0
2016,7,21,6,9,?9?9?9?9E0?9?9?9?9?9?9?9?9?9?9?9*9?9*9*9?9*9,21.80,20.70,93,95465,0,0,377,10,26,0,0,0,0,0,198,0.0,5,5,8333.0,801,9,999999999,73,0.2200,0,88,0.160,0.0,0.0
2016,7,21,6,10,?9?9?9?9E0?9?9?9?9?9?9?9?9?9?9?9*9?9*9*9?9*9,21.80,20.70,93,95465,0,0,377,12,29,0,0,0,0,0,198,0.0,5,5,8333.0,801,9,999999999,73,0.2200,0,88,0.160,0.0,0.0
2016,7,21,6,11,?9?9?9?9E0?9?9?9?9?9?9?9?9?9?9?9*9?9*9*9?9*9,21.80,20.70,93,95465,0,0,377,13,32,0,0,0,0,0,198,0.0,5,5,8333.0,801,9,999999999,73,0.2200,0,88,0.160,0.0,0.0
2016,7,21,6,12,?9?9?9?9E0?9?9?9?9?9?9?9?9?9?9?9*9?9*9*9?9*9,21.80,20.70,93,95465,0,0,377,14,36,0,0,0,0,0,198,0.0,5,5,8333.0,801,9,999999999,73,0.2200,0,88,0.160,0.0,0.0
2016,7,21,6,13,?9?9?9?9E0?9?9?9?9?9?9?9?9?9?9?9*9?9*9*9?9*9,21.80,20.70,93,95465,0,0,377,15,39,0,0,0,0,0,198,0.0,5,5,8333.0,801,9,999999999,73,0.2200,0,88,0.160,0.0,0.0
2016,7,21,6,14,?9?9?9?9E0?9?9?9?9?9?9?9?9?9?9?9*9?9*9*9?9*9,21.80,20.70,93,95465,0,0,377,17,42,0,0,0,0,0,198,0.0,5,5,8333.0,801,9,999999999,73,0.2200,0,88,0.160,0.0,0.0
2016,7,21,6,15,?9?9?9?9E0?9?9?9?9?9?9?9?9?9?9?9*9?9*9*9?9*9,21.80,20.70,93,95465,0,0,377,18,46,0,0,0,0,0,198,0.0,5,5,8333.0,801,9,999999999,73,0.2200,0,88,0.160,0.0,0.0
2016,7,21,6,16,?9?9?9?9E0?9?9?9?9?9?9?9?9?9?9?9*9?9*9*9?9*9,21.80,20.70,93,95465,0,0,377,19,49,0,0,0,0,0,198,0.0,5,5,8333.0,801,9,999999999,73,0.2200,0,88,0.160,0.0,0.0
2016,7,21,6,17,?9?9?9?9E0?9?9?9?9?9?9?9?9?9?9?9*9?9*9*9?9*9,21.80,20.70,93,95465,0,0,377,21,52,0,0,0,0,0,198,0.0,5,5,8333.0,801,9,999999999,73,0.2200,0,88,0.160,0.0,0.0
2016,7,21,6,18,?9?9?9?9E0?9?9?9?9?9?9?9?9?9?9?9*9?9*9*9?9*9,21.80,20.70,93,95465,0,0,377,22,55,0,0,0,0,0,198,0.0,5,5,8333.0,801,9,999999999,73,0.2200,0,88,0.160,0.0,0.0
2016,7,21,6,19,?9?9?9?9E0?9?9?9?9?9?9?9?9?9?9?9*9?9*9*9?9*9,21.80,20.70,93,95465,0,0,377,23,58,0,0,0,0,0,198,0.0,5,5,8333.0,801,9,999999999,73,0.2200,0,88,0.160,0.0,0.0
2016,7,21,6,20,?9?9?9?9E0?9?9?9?9?9?9?9?9?9?9?9*9?9*9*9?9*9,21.80,20.70,93,95465,0,0,377,24,62,0,0,0,0,0,198,0.0,5,5,8333.0,801,9,999999999,73,0.2200,0,88,0.160,0.0,0.0
2016,7,21,6,21,?9?9?9?9E0?9?9?9?9?9?9?9?9?9?9?9*9?9*9*9?9*9,21.80,20.70,93,95465,0,0,377,26,65,0,0,0,0,0,198,0.0,5,5,8333.0,801,9,999999999,73,0.2200,0,88,0.160,0.0,0.0
2016,7,21,6,22,?9?9?9?9E0?9?9?9?9?9?9?9?9?9?9?9*9?9*9*9?9*9,21.80,20.70,93,95465,0,0,377,27,68,0,0,0,0,0,198,0.0,5,5,8333.0,801,9,999999999,73,0.2200,0,88,0.160,0.0,0.0
2016,7,21,6,23,?9?9?9?9E0?9?9?9?9?9?9?9?9?9?9?9*9?9*9*9?9*9,21.80,20.70,93,95465,0,0,377,28,72,0,0,0,0,0,198,0.0,5,5,8333.0,801,9,999999999,73,0.2200,0,88,0.160,0.0,0.0
2016,7,21,6,24,?9?9?9?9E0?9?9?9?9?9?9?9?9?9?9?9*9?9*9*9?9*9,21.80,20.70,93,95465,0,0,377,30,75,0,0,0,0,0,198,0.0,5,5,8333.0,801,9,999999999,73,0.2200,0,88,0.160,0.0,0.0
2016,7,21,6,25,?9?9?9?9E0?9?9?9?9?9?9?9?9?9?9?9*9?9*9*9?9*9,21.80,20.70,93,95465,0,0,377,31,78,0,0,0,0,0,198,0.0,5,5,8333.0,801,9,999999999,73,0.2200,0,88,0.160,0.0,0.0
2016,7,21,6,26,?9?9?9?9E0?9?9?9?9?9?9?9?9?9?9?9*9?9*9*9?9*9,21.80,20.70,93,95465,0,0,377,32,81,0,0,0,0,0,198,0.0,5,5,8333.0,801,9,999999999,73,0.2200,0,88,0.160,0.0,0.0
2016,7,21,6,27,?9?9?9?9E0?9?9?9?9?9?9?9?9?9?9?9*9?9*9*9?9*9,21.80,20.70,93,95465,0,0,377,33,84,0,0,0,0,0,198,0.0,5,5,8333.0,801,9,999999999,73,0.2200,0,88,0.160,0.0,0.0
2016,7,21,6,28,?9?9?9?9E0?9?9?9?9?9?9?9?9?9?9?9*9?9*9*9?9*9,21.80,20.70,93,95465,0,0,377,35,88,0,0,0,0,0,198,0.0,5,5,8333.0,801,9,999999999,73,0.2200,0,88,0.160,0.0,0.0
2016,7,21,6,29,?9?9?9?9E0?9?9?9?9?9?9?9?9?9?9?9*9?9*9*9?9*9,21.80,20.70,93,95465,0,0,377,36,91,0,0,0,0,0,198,0.0,5,5,8333.0,801,9,999999999,73,0.2200,0,88,0.160,0.0,0.0
2016,7,21,6,30,?9?9?9?9E0?9?9?9?9?9?9?9?9?9?9?9*9?9*9*9?9*9,21.80,20.70,93,95465,0,0,377,37,94,0,0,0,0,0,198,0.0,5,5,8333.0,801,9,999999999,73,0.2200,0,88,0.160,0.0,0.0
2016,7,21,6,31,?9?9?9?9E0?9?9?9?9?9?9?9?9?9?9?9*9?9*9*9?9*9,21.80,20.70,93,95465,0,0,377,38,98,0,0,0,0,0,198,0.0,5,5,8333.0,801,9,999999999,73,0.2200,0,88,0.160,0.0,0.0
2016,7,21,6,32,?9?9?9?9E0?9?9?9?9?9?9?9?9?9?9?9*9?9*9*9?9*9,21.80,20.70,93,95465,0,0,377,40,101,0,0,0,0,0,198,0.0,5,5,8333.0,801,9,999999999,73,0.2200,0,88,0.160,0.0,0.0
2016,7,21,6,33,?9?9?9?9E0?9?9?9?9?9?9?9?9?9?9?9*9?9*9*9?9*9,21.80,20.70,93,95465,0,0,377,41,104,0,0,0,0,0,198,0.0,5,5,8333.0,801,9,999999999,73,0.2200,0,88,0.160,0.0,0.0
2016,7,21,6,34,?9?9?9?9E0?9?9?9?9?9?9?9?9?9?9?9*9?9*9*9?9*9,21.80,20.70,93,95465,0,0,377,42,107,0,0,0,0,0,198,0.0,5,5,8333.0,801,9,999999999,73,0.2200,0,88,0.160,0.0,0.0
2016,7,21,6,35,?9?9?9?9E0?9?9?9?9?9?9?9?9?9?9?9*9?9*9*9?9*9,21.80,20.70,93,95465,0,0,377,44,110,0,0,0,0,0,198,0.0,5,5,8333.0,801,9,999999999,73,0.2200,0,88,0.160,0.0,0.0
2016,7,21,6,36,?9?9?9?9E0?9?9?9?9?9?9?9?9?9?9?9*9?9*9*9?9*9,21.80,20.70,93,95465,0,0,377,45,114,0,0,0,0,0,198,0.0,5,5,8333.0,801,9,999999999,73,0.2200,0,88,0.160,0.0,0.0
2016,7,21,6,37,?9?9?9?9E0?9?9?9?9?9?9?9?9?9?9?9*9?9*9*9?9*9,21.80,20.70,93,95465,0,0,377,46,117,0,0,0,0,0,198,0.0,5,5,8333.0,801,9,999999999,73,0.2200,0,88,0.160,0.0,0.0
2016,7,21,6,38,?9?9?9?9E0?9?9?9?9?9?9?9?9?9?9?9*9?9*9*9?9*9,21.80,20.70,93,95465,0,0,377,47,120,0,0,0,0,0,198,0.0,5,5,8333.0,801,9,999999999,73,0.2200,0,88,0.160,0.0,0.0
2016,7,21,6,39,?9?9?9?9E0?9?9?9?9?9?9?9?9?9?9?9*9?9*9*9?9*9,21.80,20.70,93,95465,0,0,377,49,124,0,0,0,0,0,198,0.0,5,5,8333.0,801,9,999999999,73,0.2200,0,88,0.160,0.0,0.0
2016,7,21,6,40,?9?9?9?9E0?9?9?9?9?9?9?9?9?9?9?9*9?9*9*9?9*9,21.80,20.70,93,95465,0,0,377,50,127,0,0,0,0,0,198,0.0,5,5,8333.0,801,9,999999999,73,0.2200,0,88,0.160,0.0,0.0
2016,7,21,6,41,?9?9?9?9E0?9?9?9?9?9?9?9?9?9?9?9*9?9*9*9?9*9,21.80,20.70,93,95465,0,0,377,51,130,0,0,0,0,0,198,0.0,5,5,8333.0,801,9,999999999,73,0.2200,0,88,0.160,0.0,0.0
2016,7,21,6,42,?9?9?9?9E0?9?9?9?9?9?9?9?9?9?9?9*9?9*9*9?9*9,21.80,20.70,93,95465,0,0,377,53,133,0,0,0,0,0,198,0.0,5,5,8333.0,801,9,999999999,73,0.2200,0,88,0.160,0.0,0.0
2016,7,21,6,43,?9?9?9?9E0?9?9?9?9?9?9?9?9?9?9?9*9?9*9*9?9*9,21.80,20.70,93,95465,0,0,377,54,136,0,0,0,0,0,198,0.0,5,5,8333.0,801,9,999999999,73,0.2200,0,88,0.160,0.0,0.0
2016,7,21,6,44,?9?9?9?9E0?9?9?9?9?9?9?9?9?9?9?9*9?9*9*9?9*9,21.80,20.70,93,95465,0,0,377,55,140,0,0,0,0,0,198,0.0,5,5,8333.0,801,9,999999999,73,0.2200,0,88,0.160,0.0,0.0
2016,7,21,6,45,?9?9?9?9E0?9?9?9?9?9?9?9?9?9?9?9*9?9*9*9?9*9,21.80,20.70,93,95465,0,0,377,56,143,0,0,0,0,0,198,0.0,5,5,8333.0,801,9,999999999,73,0.2200,0,88,0.160,0.0,0.0
2016,7,21,6,46,?9?9?9?9E0?9?9?9?9?9?9?9?9?9?9?9*9?9*9*9?9*9,21.80,20.70,93,95465,0,0,377,58,146,0,0,0,0,0,198,0.0,5,5,8333.0,801,9,999999999,73,0.2200,0,88,0.160,0.0,0.0
2016,7,21,6,47,?9?9?9?9E0?9?9?9?9?9?9?9?9?9?9?9*9?9*9*9?9*9,21.80,20.70,93,95465,0,0,377,59,150,0,0,0,0,0,198,0.0,5,5,8333.0,801,9,999999999,73,0.2200,0,88,0.160,0.0,0.0
2016,7,21,6,48,?9?9?9?9E0?9?9?9?9?9?9?9?9?9?9?9*9?9*9*9?9*9,21.80,20.70,93,95465,0,0,377,60,153,0,0,0,0,0,198,0.0,5,5,8333.0,801,9,999999999,73,0.2200,0,88,0.160,0.0,0.0
2016,7,21,6,49,?9?9?9?9E0?9?9?9?9?9?9?9?9?9?9?9*9?9*9*9?9*9,21.80,20.70,93,95465,0,0,377,62,156,0,0,0,0,0,198,0.0,5,5,8333.0,801,9,999999999,73,0.2200,0,88,0.160,0.0,0.0
2016,7,21,6,50,?9?9?9?9E0?9?9?9?9?9?9?9?9?9?9?9*9?9*9*9?9*9,21.80,20.70,93,95465,0,0,377,63,159,0,0,0,0,0,198,0.0,5,5,8333.0,801,9,999999999,73,0.2200,0,88,0.160,0.0,0.0
2016,7,21,6,51,?9?9?9?9E0?9?9?9?9?9?9?9?9?9?9?9*9?9*9*9?9*9,21.80,20.70,93,95465,0,0,377,64,162,0,0,0,0,0,198,0.0,5,5,8333.0,801,9,999999999,73,0.2200,0,88,0.160,0.0,0.0
2016,7,21,6,52,?9?9?9?9E0?9?9?9?9?9?9?9?9?9?9?9*9?9*9*9?9*9,21.80,20.70,93,95465,0,0,377,65,166,0,0,0,0,0,198,0.0,5,5,8333.0,801,9,999999999,73,0.2200,0,88,0.160,0.0,0.0
2016,7,21,6,53,?9?9?9?9E0?9?9?9?9?9?9?9?9?9?9?9*9?9*9*9?9*9,21.80,20.70,93,95465,0,0,377,67,169,0,0,0,0,0,198,0.0,5,5,8333.0,801,9,999999999,73,0.2200,0,88,0.160,0.0,0.0
2016,7,21,6,54,?9?9?9?9E0?9?9?9?9?9?9?9?9?9?9?9*9?9*9*9?9*9,21.80,20.70,93,95465,0,0,377,68,172,0,0,0,0,0,198,0.0,5,5,8333.0,801,9,999999999,73,0.2200,0,88,0.160,0.0,0.0
2016,7,21,6,55,?9?9?9?9E0?9?9?9?9?9?9?9?9?9?9?9*9?9*9*9?9*9,21.80,20.70,93,95465,0,0,377,69,176,0,0,0,0,0,198,0.0,5,5,8333.0,801,9,999999999,73,0.2200,0,88,0.160,0.0,0.0
2016,7,21,6,56,?9?9?9?9E0?9?9?9?9?9?9?9?9?9?9?9*9?9*9*9?9*9,21.80,20.70,93,95465,0,0,377,71,179,0,0,0,0,0,198,0.0,5,5,8333.0,801,9,999999999,73,0.2200,0,88,0.160,0.0,0.0
2016,7,21,6,57,?9?9?9?9E0?9?9?9?9?9?9?9?9?9?9?9*9?9*9*9?9*9,21.80,20.70,93,95465,0,0,377,72,182,0,0,0,0,0,198,0.0,5,5,8333.0,801,9,999999999,73,0.2200,0,88,0.160,0.0,0.0
2016,7,21,6,58,?9?9?9?9E0?9?9?9?9?9?9?9?9?9?9?9*9?9*9*9?9*9,21.80,20.70,93,95465,0,0,377,73,185,0,0,0,0,0,198,0.0,5,5,8333.0,801,9,999999999,73,0.2200,0,88,0.160,0.0,0.0
2016,7,21,6,59,?9?9?9?9E0?9?9?9?9?9?9?9?9?9?9?9*9?9*9*9?9*9,21.80,20.70,93,95465,0,0,377,74,188,0,0,0,0,0,198,0.0,5,5,8333.0,801,9,999999999,73,0.2200,0,88,0.160,0.0,0.0
2016,7,21,6,60,?9?9?9?9E0?9?9?9?9?9?9?9?9?9?9?9*9?9*9*9?9*9,21.80,20.70,93,95465,0,0,377,76,192,0,0,0,0,0,198,0.0,5,5,8333.0,801,9,999999999,73,0.2200,0,88,0.160,0.0,0.0
2016,7,21,7,1,?9?9?9?9E0?9?9?9*9*9?9?9?9?9?9?9*9?9*9*9?9*9,23.00,20.90,88,95527,306,1269,377,77,195,30,18896,37224,7116,2991,203,0.0,9,9,8333.0,789,9,999999999,74,0.2200,0,88,0.160,0.0,0.0
2016,7,21,7,2,?9?9?9?9E0?9?9?9*9*9?9?9?9?9?9?9*9?9*9*9?9*9,23.00,20.90,88,95527,306,1269,377,80,200,30,18896,37224,7116,2991,203,0.0,9,9,8333.0,789,9,999999999,74,0.2200,0,88,0.160,0.0,0.0
2016,7,21,7,3,?9?9?9?9E0?9?9?9*9*9?9?9?9?9?9?9*9?9*9*9?9*9,23.00,20.90,88,95527,306,1269,377,83,205,30,18896,37224,7116,2991,203,0.0,9,9,8333.0,789,9,999999999,74,0.2200,0,88,0.160,0.0,0.0
2016,7,21,7,4,?9?9?9?9E0?9?9?9*9*9?9?9?9?9?9?9*9?9*9*9?9*9,23.00,20.90,88,95527,306,1269,377,86,210,30,18896,37224,7116,2991,203,0.0,9,9,8333.0,789,9,999999999,74,0.2200,0,88,0.160,0.0,0.0
2016,7,21,7,5,?9?9?9?9E0?9?9?9*9*9?9?9?9?9?9?9*9?9*9*9?9*9,23.00,20.90,88,95527,306,1269,377,89,215,30,18896,37224,7116,2991,203,0.0,9,9,8333.0,789,9,999999999,74,0.2200,0,88,0.160,0.0,0.0
2016,7,21,7,6,?9?9?9?9E0?9?9?9*9*9?9?9?9?9?9?9*9?9*9*9?9*9,23.00,20.90,88,95527,306,1269,377,92,220,30,18896,37224,7116,2991,203,0.0,9,9,8333.0,789,9,999999999,74,0.2200,0,88,0.160,0.0,0.0
2016,7,21,7,7,?9?9?9?9E0?9?9?9*9*9?9?9?9?9?9?9*9?9*9*9?9*9,23.00,20.90,88,95527,306,1269,377,95,224,30,18896,37224,7116,2991,203,0.0,9,9,8333.0,789,9,999999999,74,0.2200,0,88,0.160,0.0,0.0
2016,7,21,7,8,?9?9?9?9E0?9?9?9*9*9?9?9?9?9?9?9*9?9*9*9?9*9,23.00,20.90,88,95527,306,1269,377,98,229,30,18896,37224,7116,2991,203,0.0,9,9,8333.0,789,9,999999999,74,0.2200,0,88,0.160,0.0,0.0
2016,7,21,7,9,?9?9?9?9E0?9?9?9*9*9?9?9?9?9?9?9*9?9*9*9?9*9,23.00,20.90,88,95527,306,1269,377,100,234,30,18896,37224,7116,2991,203,0.0,9,9,8333.0,789,9,999999999,74,0.2200,0,88,0.160,0.0,0.0
2016,7,21,7,10,?9?9?9?9E0?9?9?9*9*9?9?9?9?9?9?9*9?9*9*9?9*9,23.00,20.90,88,95527,306,1269,377,103,239,30,18896,37224,7116,2991,203,0.0,9,9,8333.0,789,9,999999999,74,0.2200,0,88,0.160,0.0,0.0
2016,7,21,7,11,?9?9?9?9E0?9?9?9*9*9?9?9?9?9?9?9*9?9*9*9?9*9,23.00,20.90,88,95527,306,1269,377,106,244,30,18896,37224,7116,2991,203,0.0,9,9,8333.0,789,9,999999999,74,0.2200,0,88,0.160,0.0,0.0
2016,7,21,7,12,?9?9?9?9E0?9?9?9*9*9?9?9?9?9?9?9*9?9*9*9?9*9,23.00,20.90,88,95527,306,1269,377,109,249,30,18896,37224,7116,2991,203,0.0,9,9,8333.0,789,9,999999999,74,0.2200,0,88,0.160,0.0,0.0
2016,7,21,7,13,?9?9?9?9E0?9?9?9*9*9?9?9?9?9?9?9*9?9*9*9?9*9,23.00,20.90,88,95527,306,1269,377,112,254,30,18896,37224,7116,2991,203,0.0,9,9,8333.0,789,9,999999999,74,0.2200,0,88,0.160,0.0,0.0
2016,7,21,7,14,?9?9?9?9E0?9?9?9*9*9?9?9?9?9?9?9*9?9*9*9?9*9,23.00,20.90,88,95527,306,1269,377,115,259,30,18896,37224,7116,2991,203,0.0,9,9,8333.0,789,9,999999999,74,0.2200,0,88,0.160,0.0,0.0
2016,7,21,7,15,?9?9?9?9E0?9?9?9*9*9?9?9?9?9?9?9*9?9*9*9?9*9,23.00,20.90,88,95527,306,1269,377,118,264,30,18896,37224,7116,2991,203,0.0,9,9,8333.0,789,9,999999999,74,0.2200,0,88,0.160,0.0,0.0
2016,7,21,7,16,?9?9?9?9E0?9?9?9*9*9?9?9?9?9?9?9*9?9*9*9?9*9,23.00,20.90,88,95527,306,1269,377,121,268,30,18896,37224,7116,2991,203,0.0,9,9,8333.0,789,9,999999999,74,0.2200,0,88,0.160,0.0,0.0
2016,7,21,7,17,?9?9?9?9E0?9?9?9*9*9?9?9?9?9?9?9*9?9*9*9?9*9,23.00,20.90,88,95527,306,1269,377,124,273,30,18896,37224,7116,2991,203,0.0,9,9,8333.0,789,9,999999999,74,0.2200,0,88,0.160,0.0,0.0
2016,7,21,7,18,?9?9?9?9E0?9?9?9*9*9?9?9?9?9?9?9*9?9*9*9?9*9,23.00,20.90,88,95527,306,1269,377,127,278,30,18896,37224,7116,2991,203,0.0,9,9,8333.0,789,9,999999999,74,0.2200,0,88,0.160,0.0,0.0
2016,7,21,7,19,?9?9?9?9E0?9?9?9*9*9?9?9?9?9?9?9*9?9*9*9?9*9,23.00,20.90,88,95527,306,1269,377,130,283,30,18896,37224,7116,2991,203,0.0,9,9,8333.0,789,9,999999999,74,0.2200,0,88,0.160,0.0,0.0
2016,7,21,7,20,?9?9?9?9E0?9?9?9*9*9?9?9?9?9?9?9*9?9*9*9?9*9,23.00,20.90,88,95527,306,1269,377,133,288,30,18896,37224,7116,2991,203,0.0,9,9,8333.0,789,9,999999999,74,0.2200,0,88,0.160,0.0,0.0
2016,7,21,7,21,?9?9?9?9E0?9?9?9*9*9?9?9?9?9?9?9*9?9*9*9?9*9,23.00,20.90,88,95527,306,1269,377,136,293,30,18896,37224,7116,2991,203,0.0,9,9,8333.0,789,9,999999999,74,0.2200,0,88,0.160,0.0,0.0
2016,7,21,7,22,?9?9?9?9E0?9?9?9*9*9?9?9?9?9?9?9*9?9*9*9?9*9,23.00,20.90,88,95527,306,1269,377,139,298,30,18896,37224,7116,2991,203,0.0,9,9,8333.0,789,9,999999999,74,0.2200,0,88,0.160,0.0,0.0
2016,7,21,7,23,?9?9?9?9E0?9?9?9*9*9?9?9?9?9?9?9*9?9*9*9?9*9,23.00,20.90,88,95527,306,1269,377,142,303,30,18896,37224,7116,2991,203,0.0,9,9,8333.0,789,9,999999999,74,0.2200,0,88,0.160,0.0,0.0
2016,7,21,7,24,?9?9?9?9E0?9?9?9*9*9?9?9?9?9?9?9*9?9*9*9?9*9,23.00,20.90,88,95527,306,1269,377,144,308,30,18896,37224,7116,2991,203,0.0,9,9,8333.0,789,9,999999999,74,0.2200,0,88,0.160,0.0,0.0
2016,7,21,7,25,?9?9?9?9E0?9?9?9*9*9?9?9?9?9?9?9*9?9*9*9?9*9,23.00,20.90,88,95527,306,1269,377,147,313,30,18896,37224,7116,2991,203,0.0,9,9,8333.0,789,9,999999999,74,0.2200,0,88,0.160,0.0,0.0
2016,7,21,7,26,?9?9?9?9E0?9?9?9*9*9?9?9?9?9?9?9*9?9*9*9?9*9,23.00,20.90,88,95527,306,1269,377,150,318,30,18896,37224,7116,2991,203,0.0,9,9,8333.0,789,9,999999999,74,0.2200,0,88,0.160,0.0,0.0
2016,7,21,7,27,?9?9?9?9E0?9?9?9*9*9?9?9?9?9?9?9*9?9*9*9?9*9,23.00,20.90,88,95527,306,1269,377,153,322,30,18896,37224,7116,2991,203,0.0,9,9,8333.0,789,9,999999999,74,0.2200,0,88,0.160,0.0,0.0
2016,7,21,7,28,?9?9?9?9E0?9?9?9*9*9?9?9?9?9?9?9*9?9*9*9?9*9,23.00,20.90,88,95527,306,1269,377,156,327,30,18896,37224,7116,2991,203,0.0,9,9,8333.0,789,9,999999999,74,0.2200,0,88,0.160,0.0,0.0
2016,7,21,7,29,?9?9?9?9E0?9?9?9*9*9?9?9?9?9?9?9*9?9*9*9?9*9,23.00,20.90,88,95527,306,1269,377,159,332,30,18896,37224,7116,2991,203,0.0,9,9,8333.0,789,9,999999999,74,0.2200,0,88,0.160,0.0,0.0
2016,7,21,7,30,?9?9?9?9E0?9?9?9*9*9?9?9?9?9?9?9*9?9*9*9?9*9,23.00,20.90,88,95527,306,1269,377,162,337,30,18896,37224,7116,2991,203,0.0,9,9,8333.0,789,9,999999999,74,0.2200,0,88,0.160,0.0,0.0
2016,7,21,7,31,?9?9?9?9E0?9?9?9*9*9?9?9?9?9?9?9*9?9*9*9?9*9,23.00,20.90,88,95527,306,1269,377,165,342,30,18896,37224,7116,2991,203,0.0,9,9,8333.0,789,9,999999999,74,0.2200,0,88,0.160,0.0,0.0
2016,7,21,7,32,?9?9?9?9E0?9?9?9*9*9?9?9?9?9?9?9*9?9*9*9?9*9,23.00,20.90,88,95527,306,1269,377,168,347,30,18896,37224,7116,2991,203,0.0,9,9,8333.0,789,9,999999999,74,0.2200,0,88,0.160,0.0,0.0
2016,7,21,7,33,?9?9?9?9E0?9?9?9*9*9?9?9?9?9?9?9*9?9*9*9?9*9,23.00,20.90,88,95527,306,1269,377,171,352,30,18896,37224,7116,2991,203,0.0,9,9,8333.0,789,9,999999999,74,0.2200,0,88,0.160,0.0,0.0
2016,7,21,7,34,?9?9?9?9E0?9?9?9*9*9?9?9?9?9?9?9*9?9*9*9?9*9,23.00,20.90,88,95527,306,1269,377,174,357,30,18896,37224,7116,2991,203,0.0,9,9,8333.0,789,9,999999999,74,0.2200,0,88,0.160,0.0,0.0
2016,7,21,7,35,?9?9?9?9E0?9?9?9*9*9?9?9?9?9?9?9*9?9*9*9?9*9,23.00,20.90,88,95527,306,1269,377,177,362,30,18896,37224,7116,2991,203,0.0,9,9,8333.0,789,9,999999999,74,0.2200,0,88,0.160,0.0,0.0
2016,7,21,7,36,?9?9?9?9E0?9?9?9*9*9?9?9?9?9?9?9*9?9*9*9?9*9,23.00,20.90,88,95527,306,1269,377,180,366,30,18896,37224,7116,2991,203,0.0,9,9,8333.0,789,9,999999999,74,0.2200,0,88,0.160,0.0,0.0
2016,7,21,7,37,?9?9?9?9E0?9?9?9*9*9?9?9?9?9?9?9*9?9*9*9?9*9,23.00,20.90,88,95527,306,1269,377,183,371,30,18896,37224,7116,2991,203,0.0,9,9,8333.0,789,9,999999999,74,0.2200,0,88,0.160,0.0,0.0
2016,7,21,7,38,?9?9?9?9E0?9?9?9*9*9?9?9?9?9?9?9*9?9*9*9?9*9,23.00,20.90,88,95527,306,1269,377,186,376,30,18896,37224,7116,2991,203,0.0,9,9,8333.0,789,9,999999999,74,0.2200,0,88,0.160,0.0,0.0
2016,7,21,7,39,?9?9?9?9E0?9?9?9*9*9?9?9?9?9?9?9*9?9*9*9?9*9,23.00,20.90,88,95527,306,1269,377,188,381,30,18896,37224,7116,2991,203,0.0,9,9,8333.0,789,9,999999999,74,0.2200,0,88,0.160,0.0,0.0
2016,7,21,7,40,?9?9?9?9E0?9?9?9*9*9?9?9?9?9?9?9*9?9*9*9?9*9,23.00,20.90,88,95527,306,1269,377,191,386,30,18896,37224,7116,2991,203,0.0,9,9,8333.0,789,9,999999999,74,0.2200,0,88,0.160,0.0,0.0
2016,7,21,7,41,?9?9?9?9E0?9?9?9*9*9?9?9?9?9?9?9*9?9*9*9?9*9,23.00,20.90,88,95527,306,1269,377,194,391,30,18896,37224,7116,2991,203,0.0,9,9,8333.0,789,9,999999999,74,0.2200,0,88,0.160,0.0,0.0
2016,7,21,7,42,?9?9?9?9E0?9?9?9*9*9?9?9?9?9?9?9*9?9*9*9?9*9,23.00,20.90,88,95527,306,1269,377,197,396,30,18896,37224,7116,2991,203,0.0,9,9,8333.0,789,9,999999999,74,0.2200,0,88,0.160,0.0,0.0
2016,7,21,7,43,?9?9?9?9E0?9?9?9*9*9?9?9?9?9?9?9*9?9*9*9?9*9,23.00,20.90,88,95527,306,1269,377,200,401,30,18896,37224,7116,2991,203,0.0,9,9,8333.0,789,9,999999999,74,0.2200,0,88,0.160,0.0,0.0
2016,7,21,7,44,?9?9?9?9E0?9?9?9*9*9?9?9?9?9?9?9*9?9*9*9?9*9,23.00,20.90,88,95527,306,1269,377,203,406,30,18896,37224,7116,2991,203,0.0,9,9,8333.0,789,9,999999999,74,0.2200,0,88,0.160,0.0,0.0
2016,7,21,7,45,?9?9?9?9E0?9?9?9*9*9?9?9?9?9?9?9*9?9*9*9?9*9,23.00,20.90,88,95527,306,1269,377,206,411,30,18896,37224,7116,2991,203,0.0,9,9,8333.0,789,9,999999999,74,0.2200,0,88,0.160,0.0,0.0
2016,7,21,7,46,?9?9?9?9E0?9?9?9*9*9?9?9?9?9?9?9*9?9*9*9?9*9,23.00,20.90,88,95527,306,1269,377,209,416,30,18896,37224,7116,2991,203,0.0,9,9,8333.0,789,9,999999999,74,0.2200,0,88,0.160,0.0,0.0
2016,7,21,7,47,?9?9?9?9E0?9?9?9*9*9?9?9?9?9?9?9*9?9*9*9?9*9,23.00,20.90,88,95527,306,1269,377,212,420,30,18896,37224,7116,2991,203,0.0,9,9,8333.0,789,9,999999999,74,0.2200,0,88,0.160,0.0,0.0
2016,7,21,7,48,?9?9?9?9E0?9?9?9*9*9?9?9?9?9?9?9*9?9*9*9?9*9,23.00,20.90,88,95527,306,1269,377,215,425,30,18896,37224,7116,2991,203,0.0,9,9,8333.0,789,9,999999999,74,0.2200,0,88,0.160,0.0,0.0
2016,7,21,7,49,?9?9?9?9E0?9?9?9*9*9?9?9?9?9?9?9*9?9*9*9?9*9,23.00,20.90,88,95527,306,1269,377,218,430,30,18896,37224,7116,2991,203,0.0,9,9,8333.0,789,9,999999999,74,0.2200,0,88,0.160,0.0,0.0
2016,7,21,7,50,?9?9?9?9E0?9?9?9*9*9?9?9?9?9?9?9*9?9*9*9?9*9,23.00,20.90,88,95527,306,1269,377,221,435,30,18896,37224,7116,2991,203,0.0,9,9,8333.0,789,9,999999999,74,0.2200,0,88,0.160,0.0,0.0
2016,7,21,7,51,?9?9?9?9E0?9?9?9*9*9?9?9?9?9?9?9*9?9*9*9?9*9,23.00,20.90,88,95527,306,1269,377,224,440,30,18896,37224,7116,2991,203,0.0,9,9,8333.0,789,9,999999999,74,0.2200,0,88,0.160,0.0,0.0
2016,7,21,7,52,?9?9?9?9E0?9?9?9*9*9?9?9?9?9?9?9*9?9*9*9?9*9,23.00,20.90,88,95527,306,1269,377,227,445,30,18896,37224,7116,2991,203,0.0,9,9,8333.0,789,9,999999999,74,0.2200,0,88,0.160,0.0,0.0
2016,7,21,7,53,?9?9?9?9E0?9?9?9*9*9?9?9?9?9?9?9*9?9*9*9?9*9,23.00,20.90,88,95527,306,1269,377,230,450,30,18896,37224,7116,2991,203,0.0,9,9,8333.0,789,9,999999999,74,0.2200,0,88,0.160,0.0,0.0
2016,7,21,7,54,?9?9?9?9E0?9?9?9*9*9?9?9?9?9?9?9*9?9*9*9?9*9,23.00,20.90,88,95527,306,1269,377,232,455,30,18896,37224,7116,2991,203,0.0,9,9,8333.0,789,9,999999999,74,0.2200,0,88,0.160,0.0,0.0
2016,7,21,7,55,?9?9?9?9E0?9?9?9*9*9?9?9?9?9?9?9*9?9*9*9?9*9,23.00,20.90,88,95527,306,1269,377,235,460,30,18896,37224,7116,2991,203,0.0,9,9,8333.0,789,9,999999999,74,0.2200,0,88,0.160,0.0,0.0
2016,7,21,7,56,?9?9?9?9E0?9?9?9*9*9?9?9?9?9?9?9*9?9*9*9?9*9,23.00,20.90,88,95527,306,1269,377,238,464,30,18896,37224,7116,2991,203,0.0,9,9,8333.0,789,9,999999999,74,0.2200,0,88,0.160,0.0,0.0
2016,7,21,7,57,?9?9?9?9E0?9?9?9*9*9?9?9?9?9?9?9*9?9*9*9?9*9,23.00,20.90,88,95527,306,1269,377,241,469,30,18896,37224,7116,2991,203,0.0,9,9,8333.0,789,9,999999999,74,0.2200,0,88,0.160,0.0,0.0
2016,7,21,7,58,?9?9?9?9E0?9?9?9*9*9?9?9?9?9?9?9*9?9*9*9?9*9,23.00,20.90,88,95527,306,1269,377,244,474,30,18896,37224,7116,2991,203,0.0,9,9,8333.0,789,9,999999999,74,0.2200,0,88,0.160,0.0,0.0
2016,7,21,7,59,?9?9?9?9E0?9?9?9*9*9?9?9?9?9?9?9*9?9*9*9?9*9,23.00,20.90,88,95527,306,1269,377,247,479,30,18896,37224,7116,2991,203,0.0,9,9,8333.0,789,9,999999999,74,0.2200,0,88,0.160,0.0,0.0
2016,7,21,7,60,?9?9?9?9E0?9?9?9*9*9?9?9?9?9?9?9*9?9*9*9?9*9,23.00,20.90,88,95527,306,1269,377,250,484,30,18896,37224,7116,2991,203,0.0,9,9,8333.0,789,9,999999999,74,0.2200,0,88,0.160,0.0,0.0
2016,7,21,8,1,?9?9?9?9E0?9?9?9*9*9?9?9?9?9?9?9*9?9*9*9?9*9,24.20,21.10,83,95589,609,1323,380,253,489,73,40863,59722,12106,3284,212,0.0,8,8,8333.0,257,9,999999999,76,0.2200,0,88,0.160,0.0,0.0
2016,7,21,8,2,?9?9?9?9E0?9?9?9*9*9?9?9?9?9?9?9*9?9*9*9?9*9,24.20,21.10,83,95589,609,1323,380,256,491,73,40863,59722,12106,3284,212,0.0,8,8,8333.0,257,9,999999999,76,0.2200,0,88,0.160,0.0,0.0
2016,7,21,8,3,?9?9?9?9E0?9?9?9*9*9?9?9?9?9?9?9*9?9*9*9?9*9,24.20,21.10,83,95589,609,1323,380,260,494,73,40863,59722,12106,3284,212,0.0,8,8,8333.0,257,9,999999999,76,0.2200,0,88,0.160,0.0,0.0
2016,7,21,8,4,?9?9?9?9E0?9?9?9*9*9?9?9?9?9?9?9*9?9*9*9?9*9,24.20,21.10,83,95589,609,1323,380,263,496,73,40863,59722,12106,3284,212,0.0,8,8,8333.0,257,9,999999999,76,0.2200,0,88,0.160,0.0,0.0
2016,7,21,8,5,?9?9?9?9E0?9?9?9*9*9?9?9?9?9?9?9*9?9*9*9?9*9,24.20,21.10,83,95589,609,1323,380,266,498,73,40863,59722,12106,3284,212,0.0,8,8,8333.0,257,9,999999999,76,0.2200,0,88,0.160,0.0,0.0
2016,7,21,8,6,?9?9?9?9E0?9?9?9*9*9?9?9?9?9?9?9*9?9*9*9?9*9,24.20,21.10,83,95589,609,1323,380,270,500,73,40863,59722,12106,3284,212,0.0,8,8,8333.0,257,9,999999999,76,0.2200,0,88,0.160,0.0,0.0
2016,7,21,8,7,?9?9?9?9E0?9?9?9*9*9?9?9?9?9?9?9*9?9*9*9?9*9,24.20,21.10,83,95589,609,1323,380,273,503,73,40863,59722,12106,3284,212,0.0,8,8,8333.0,257,9,999999999,76,0.2200,0,88,0.160,0.0,0.0
2016,7,21,8,8,?9?9?9?9E0?9?9?9*9*9?9?9?9?9?9?9*9?9*9*9?9*9,24.20,21.10,83,95589,609,1323,380,276,505,73,40863,59722,12106,3284,212,0.0,8,8,8333.0,257,9,999999999,76,0.2200,0,88,0.160,0.0,0.0
2016,7,21,8,9,?9?9?9?9E0?9?9?9*9*9?9?9?9?9?9?9*9?9*9*9?9*9,24.20,21.10,83,95589,609,1323,380,280,507,73,40863,59722,12106,3284,212,0.0,8,8,8333.0,257,9,999999999,76,0.2200,0,88,0.160,0.0,0.0
2016,7,21,8,10,?9?9?9?9E0?9?9?9*9*9?9?9?9?9?9?9*9?9*9*9?9*9,24.20,21.10,83,95589,609,1323,380,283,509,73,40863,59722,12106,3284,212,0.0,8,8,8333.0,257,9,999999999,76,0.2200,0,88,0.160,0.0,0.0
2016,7,21,8,11,?9?9?9?9E0?9?9?9*9*9?9?9?9?9?9?9*9?9*9*9?9*9,24.20,21.10,83,95589,609,1323,380,286,512,73,40863,59722,12106,3284,212,0.0,8,8,8333.0,257,9,999999999,76,0.2200,0,88,0.160,0.0,0.0
2016,7,21,8,12,?9?9?9?9E0?9?9?9*9*9?9?9?9?9?9?9*9?9*9*9?9*9,24.20,21.10,83,95589,609,1323,380,289,514,73,40863,59722,12106,3284,212,0.0,8,8,8333.0,257,9,999999999,76,0.2200,0,88,0.160,0.0,0.0
2016,7,21,8,13,?9?9?9?9E0?9?9?9*9*9?9?9?9?9?9?9*9?9*9*9?9*9,24.20,21.10,83,95589,609,1323,380,293,516,73,40863,59722,12106,3284,212,0.0,8,8,8333.0,257,9,999999999,76,0.2200,0,88,0.160,0.0,0.0
2016,7,21,8,14,?9?9?9?9E0?9?9?9*9*9?9?9?9?9?9?9*9?9*9*9?9*9,24.20,21.10,83,95589,609,1323,380,296,518,73,40863,59722,12106,3284,212,0.0,8,8,8333.0,257,9,999999999,76,0.2200,0,88,0.160,0.0,0.0
2016,7,21,8,15,?9?9?9?9E0?9?9?9*9*9?9?9?9?9?9?9*9?9*9*9?9*9,24.20,21.10,83,95589,609,1323,380,299,521,73,40863,59722,12106,3284,212,0.0,8,8,8333.0,257,9,999999999,76,0.2200,0,88,0.160,0.0,0.0
2016,7,21,8,16,?9?9?9?9E0?9?9?9*9*9?9?9?9?9?9?9*9?9*9*9?9*9,24.20,21.10,83,95589,609,1323,380,303,523,73,40863,59722,12106,3284,212,0.0,8,8,8333.0,257,9,999999999,76,0.2200,0,88,0.160,0.0,0.0
2016,7,21,8,17,?9?9?9?9E0?9?9?9*9*9?9?9?9?9?9?9*9?9*9*9?9*9,24.20,21.10,83,95589,609,1323,380,306,525,73,40863,59722,12106,3284,212,0.0,8,8,8333.0,257,9,999999999,76,0.2200,0,88,0.160,0.0,0.0
2016,7,21,8,18,?9?9?9?9E0?9?9?9*9*9?9?9?9?9?9?9*9?9*9*9?9*9,24.20,21.10,83,95589,609,1323,380,309,528,73,40863,59722,12106,3284,212,0.0,8,8,8333.0,257,9,999999999,76,0.2200,0,88,0.160,0.0,0.0
2016,7,21,8,19,?9?9?9?9E0?9?9?9*9*9?9?9?9?9?9?9*9?9*9*9?9*9,24.20,21.10,83,95589,609,1323,380,313,530,73,40863,59722,12106,3284,212,0.0,8,8,8333.0,257,9,999999999,76,0.2200,0,88,0.160,0.0,0.0
2016,7,21,8,20,?9?9?9?9E0?9?9?9*9*9?9?9?9?9?9?9*9?9*9*9?9*9,24.20,21.10,83,95589,609,1323,380,316,532,73,40863,59722,12106,3284,212,0.0,8,8,8333.0,257,9,999999999,76,0.2200,0,88,0.160,0.0,0.0
2016,7,21,8,21,?9?9?9?9E0?9?9?9*9*9?9?9?9?9?9?9*9?9*9*9?9*9,24.20,21.10,83,95589,609,1323,380,319,534,73,40863,59722,12106,3284,212,0.0,8,8,8333.0,257,9,999999999,76,0.2200,0,88,0.160,0.0,0.0
2016,7,21,8,22,?9?9?9?9E0?9?9?9*9*9?9?9?9?9?9?9*9?9*9*9?9*9,24.20,21.10,83,95589,609,1323,380,323,537,73,40863,59722,12106,3284,212,0.0,8,8,8333.0,257,9,999999999,76,0.2200,0,88,0.160,0.0,0.0
2016,7,21,8,23,?9?9?9?9E0?9?9?9*9*9?9?9?9?9?9?9*9?9*9*9?9*9,24.20,21.10,83,95589,609,1323,380,326,539,73,40863,59722,12106,3284,212,0.0,8,8,8333.0,257,9,999999999,76,0.2200,0,88,0.160,0.0,0.0
2016,7,21,8,24,?9?9?9?9E0?9?9?9*9*9?9?9?9?9?9?9*9?9*9*9?9*9,24.20,21.10,83,95589,609,1323,380,329,541,73,40863,59722,12106,3284,212,0.0,8,8,8333.0,257,9,999999999,76,0.2200,0,88,0.160,0.0,0.0
2016,7,21,8,25,?9?9?9?9E0?9?9?9*9*9?9?9?9?9?9?9*9?9*9*9?9*9,24.20,21.10,83,95589,609,1323,380,333,543,73,40863,59722,12106,3284,212,0.0,8,8,8333.0,257,9,999999999,76,0.2200,0,88,0.160,0.0,0.0
2016,7,21,8,26,?9?9?9?9E0?9?9?9*9*9?9?9?9?9?9?9*9?9*9*9?9*9,24.20,21.10,83,95589,609,1323,380,336,546,73,40863,59722,12106,3284,212,0.0,8,8,8333.0,257,9,999999999,76,0.2200,0,88,0.160,0.0,0.0
2016,7,21,8,27,?9?9?9?9E0?9?9?9*9*9?9?9?9?9?9?9*9?9*9*9?9*9,24.20,21.10,83,95589,609,1323,380,339,548,73,40863,59722,12106,3284,212,0.0,8,8,8333.0,257,9,999999999,76,0.2200,0,88,0.160,0.0,0.0
2016,7,21,8,28,?9?9?9?9E0?9?9?9*9*9?9?9?9?9?9?9*9?9*9*9?9*9,24.20,21.10,83,95589,609,1323,380,343,550,73,40863,59722,12106,3284,212,0.0,8,8,8333.0,257,9,999999999,76,0.2200,0,88,0.160,0.0,0.0
2016,7,21,8,29,?9?9?9?9E0?9?9?9*9*9?9?9?9?9?9?9*9?9*9*9?9*9,24.20,21.10,83,95589,609,1323,380,346,552,73,40863,59722,12106,3284,212,0.0,8,8,8333.0,257,9,999999999,76,0.2200,0,88,0.160,0.0,0.0
2016,7,21,8,30,?9?9?9?9E0?9?9?9*9*9?9?9?9?9?9?9*9?9*9*9?9*9,24.20,21.10,83,95589,609,1323,380,349,555,73,40863,59722,12106,3284,212,0.0,8,8,8333.0,257,9,999999999,76,0.2200,0,88,0.160,0.0,0.0
2016,7,21,8,31,?9?9?9?9E0?9?9?9*9*9?9?9?9?9?9?9*9?9*9*9?9*9,24.20,21.10,83,95589,609,1323,380,352,557,73,40863,59722,12106,3284,212,0.0,8,8,8333.0,257,9,999999999,76,0.2200,0,88,0.160,0.0,0.0
2016,7,21,8,32,?9?9?9?9E0?9?9?9*9*9?9?9?9?9?9?9*9?9*9*9?9*9,24.20,21.10,83,95589,609,1323,380,356,559,73,40863,59722,12106,3284,212,0.0,8,8,8333.0,257,9,999999999,76,0.2200,0,88,0.160,0.0,0.0
2016,7,21,8,33,?9?9?9?9E0?9?9?9*9*9?9?9?9?9?9?9*9?9*9*9?9*9,24.20,21.10,83,95589,609,1323,380,359,562,73,40863,59722,12106,3284,212,0.0,8,8,8333.0,257,9,999999999,76,0.2200,0,88,0.160,0.0,0.0
2016,7,21,8,34,?9?9?9?9E0?9?9?9*9*9?9?9?9?9?9?9*9?9*9*9?9*9,24.20,21.10,83,95589,609,1323,380,362,564,73,40863,59722,12106,3284,212,0.0,8,8,8333.0,257,9,999999999,76,0.2200,0,88,0.160,0.0,0.0
2016,7,21,8,35,?9?9?9?9E0?9?9?9*9*9?9?9?9?9?9?9*9?9*9*9?9*9,24.20,21.10,83,95589,609,1323,380,366,566,73,40863,59722,12106,3284,212,0.0,8,8,8333.0,257,9,999999999,76,0.2200,0,88,0.160,0.0,0.0
2016,7,21,8,36,?9?9?9?9E0?9?9?9*9*9?9?9?9?9?9?9*9?9*9*9?9*9,24.20,21.10,83,95589,609,1323,380,369,568,73,40863,59722,12106,3284,212,0.0,8,8,8333.0,257,9,999999999,76,0.2200,0,88,0.160,0.0,0.0
2016,7,21,8,37,?9?9?9?9E0?9?9?9*9*9?9?9?9?9?9?9*9?9*9*9?9*9,24.20,21.10,83,95589,609,1323,380,372,571,73,40863,59722,12106,3284,212,0.0,8,8,8333.0,257,9,999999999,76,0.2200,0,88,0.160,0.0,0.0
2016,7,21,8,38,?9?9?9?9E0?9?9?9*9*9?9?9?9?9?9?9*9?9*9*9?9*9,24.20,21.10,83,95589,609,1323,380,376,573,73,40863,59722,12106,3284,212,0.0,8,8,8333.0,257,9,999999999,76,0.2200,0,88,0.160,0.0,0.0
2016,7,21,8,39,?9?9?9?9E0?9?9?9*9*9?9?9?9?9?9?9*9?9*9*9?9*9,24.20,21.10,83,95589,609,1323,380,379,575,73,40863,59722,12106,3284,212,0.0,8,8,8333.0,257,9,999999999,76,0.2200,0,88,0.160,0.0,0.0
2016,7,21,8,40,?9?9?9?9E0?9?9?9*9*9?9?9?9?9?9?9*9?9*9*9?9*9,24.20,21.10,83,95589,609,1323,380,382,577,73,40863,59722,12106,3284,212,0.0,8,8,8333.0,257,9,999999999,76,0.2200,0,88,0.160,0.0,0.0
2016,7,21,8,41,?9?9?9?9E0?9?9?9*9*9?9?9?9?9?9?9*9?9*9*9?9*9,24.20,21.10,83,95589,609,1323,380,386,580,73,40863,59722,12106,3284,212,0.0,8,8,8333.0,257,9,999999999,76,0.2200,0,88,0.160,0.0,0.0
2016,7,21,8,42,?9?9?9?9E0?9?9?9*9*9?9?9?9?9?9?9*9?9*9*9?9*9,24.20,21.10,83,95589,609,1323,380,389,582,73,40863,59722,12106,3284,212,0.0,8,8,8333.0,257,9,999999999,76,0.2200,0,88,0.160,0.0,0.0
2016,7,21,8,43,?9?9?9?9E0?9?9?9*9*9?9?9?9?9?9?9*9?9*9*9?9*9,24.20,21.10,83,95589,609,1323,380,392,584,73,40863,59722,12106,3284,212,0.0,8,8,8333.0,257,9,999999999,76,0.2200,0,88,0.160,0.0,0.0
2016,7,21,8,44,?9?9?9?9E0?9?9?9*9*9?9?9?9?9?9?9*9?9*9*9?9*9,24.20,21.10,83,95589,609,1323,380,396,586,73,40863,59722,12106,3284,212,0.0,8,8,8333.0,257,9,999999999,76,0.2200,0,88,0.160,0.0,0.0
2016,7,21,8,45,?9?9?9?9E0?9?9?9*9*9?9?9?9?9?9?9*9?9*9*9?9*9,24.20,21.10,83,95589,609,1323,380,399,589,73,40863,59722,12106,3284,212,0.0,8,8,8333.0,257,9,999999999,76,0.2200,0,88,0.160,0.0,0.0
2016,7,21,8,46,?9?9?9?9E0?9?9?9*9*9?9?9?9?9?9?9*9?9*9*9?9*9,24.20,21.10,83,95589,609,1323,380,402,591,73,40863,59722,12106,3284,212,0.0,8,8,8333.0,257,9,999999999,76,0.2200,0,88,0.160,0.0,0.0
2016,7,21,8,47,?9?9?9?9E0?9?9?9*9*9?9?9?9?9?9?9*9?9*9*9?9*9,24.20,21.10,83,95589,609,1323,380,406,593,73,40863,59722,12106,3284,212,0.0,8,8,8333.0,257,9,999999999,76,0.2200,0,88,0.160,0.0,0.0
2016,7,21,8,48,?9?9?9?9E0?9?9?9*9*9?9?9?9?9?9?9*9?9*9*9?9*9,24.20,21.10,83,95589,609,1323,380,409,596,73,40863,59722,12106,3284,212,0.0,8,8,8333.0,257,9,999999999,76,0.2200,0,88,0.160,0.0,0.0
2016,7,21,8,49,?9?9?9?9E0?9?9?9*9*9?9?9?9?9?9?9*9?9*9*9?9*9,24.20,21.10,83,95589,609,1323,380,412,598,73,40863,59722,12106,3284,212,0.0,8,8,8333.0,257,9,999999999,76,0.2200,0,88,0.160,0.0,0.0
2016,7,21,8,50,?9?9?9?9E0?9?9?9*9*9?9?9?9?9?9?9*9?9*9*9?9*9,24.20,21.10,83,95589,609,1323,380,416,600,73,40863,59722,12106,3284,212,0.0,8,8,8333.0,257,9,999999999,76,0.2200,0,88,0.160,0.0,0.0
2016,7,21,8,51,?9?9?9?9E0?9?9?9*9*9?9?9?9?9?9?9*9?9*9*9?9*9,24.20,21.10,83,95589,609,1323,380,419,602,73,40863,59722,12106,3284,212,0.0,8,8,8333.0,257,9,999999999,76,0.2200,0,88,0.160,0.0,0.0
2016,7,21,8,52,?9?9?9?9E0?9?9?9*9*9?9?9?9?9?9?9*9?9*9*9?9*9,24.20,21.10,83,95589,609,1323,380,422,605,73,40863,59722,12106,3284,212,0.0,8,8,8333.0,257,9,999999999,76,0.2200,0,88,0.160,0.0,0.0
2016,7,21,8,53,?9?9?9?9E0?9?9?9*9*9?9?9?9?9?9?9*9?9*9*9?9*9,24.20,21.10,83,95589,609,1323,380,425,607,73,40863,59722,12106,3284,212,0.0,8,8,8333.0,257,9,999999999,76,0.2200,0,88,0.160,0.0,0.0
2016,7,21,8,54,?9?9?9?9E0?9?9?9*9*9?9?9?9?9?9?9*9?9*9*9?9*9,24.20,21.10,83,95589,609,1323,380,429,609,73,40863,59722,12106,3284,212,0.0,8,8,8333.0,257,9,999999999,76,0.2200,0,88,0.160,0.0,0.0
2016,7,21,8,55,?9?9?9?9E0?9?9?9*9*9?9?9?9?9?9?9*9?9*9*9?9*9,24.20,21.10,83,95589,609,1323,380,432,611,73,40863,59722,12106,3284,212,0.0,8,8,8333.0,257,9,999999999,76,0.2200,0,88,0.160,0.0,0.0
2016,7,21,8,56,?9?9?9?9E0?9?9?9*9*9?9?9?9?9?9?9*9?9*9*9?9*9,24.20,21.10,83,95589,609,1323,380,435,614,73,40863,59722,12106,3284,212,0.0,8,8,8333.0,257,9,999999999,76,0.2200,0,88,0.160,0.0,0.0
2016,7,21,8,57,?9?9?9?9E0?9?9?9*9*9?9?9?9?9?9?9*9?9*9*9?9*9,24.20,21.10,83,95589,609,1323,380,439,616,73,40863,59722,12106,3284,212,0.0,8,8,8333.0,257,9,999999999,76,0.2200,0,88,0.160,0.0,0.0
2016,7,21,8,58,?9?9?9?9E0?9?9?9*9*9?9?9?9?9?9?9*9?9*9*9?9*9,24.20,21.10,83,95589,609,1323,380,442,618,73,40863,59722,12106,3284,212,0.0,8,8,8333.0,257,9,999999999,76,0.2200,0,88,0.160,0.0,0.0
2016,7,21,8,59,?9?9?9?9E0?9?9?9*9*9?9?9?9?9?9?9*9?9*9*9?9*9,24.20,21.10,83,95589,609,1323,380,445,620,73,40863,59722,12106,3284,212,0.0,8,8,8333.0,257,9,999999999,76,0.2200,0,88,0.160,0.0,0.0
2016,7,21,8,60,?9?9?9?9E0?9?9?9*9*9?9?9?9?9?9?9*9?9*9*9?9*9,24.20,21.10,83,95589,609,1323,380,449,623,73,40863,59722,12106,3284,212,0.0,8,8,8333.0,257,9,999999999,76,0.2200,0,88,0.160,0.0,0.0
2016,7,21,9,1,?9?9?9?9E0?9?9?9?9?9?9?9?9?9?9?9*9?9*9*9?9*9,25.40,21.30,78,95651,874,1323,389,452,625,98,61611,64659,16685,2937,224,0.0,5,5,8333.0,380,9,999999999,77,0.2200,0,88,0.160,0.0,0.0
2016,7,21,9,2,?9?9?9?9E0?9?9?9?9?9?9?9?9?9?9?9*9?9*9*9?9*9,25.40,21.30,78,95651,874,1323,389,455,626,98,61611,64659,16685,2937,224,0.0,5,5,8333.0,380,9,999999999,77,0.2200,0,88,0.160,0.0,0.0
2016,7,21,9,3,?9?9?9?9E0?9?9?9?9?9?9?9?9?9?9?9*9?9*9*9?9*9,25.40,21.30,78,95651,874,1323,389,458,627,98,61611,64659,16685,2937,224,0.0,5,5,8333.0,380,9,999999999,77,0.2200,0,88,0.160,0.0,0.0
2016,7,21,9,4,?9?9?9?9E0?9?9?9?9?9?9?9?9?9?9?9*9?9*9*9?9*9,25.40,21.30,78,95651,874,1323,389,460,627,98,61611,64659,16685,2937,224,0.0,5,5,8333.0,380,9,999999999,77,0.2200,0,88,0.160,0.0,0.0
2016,7,21,9,5,?9?9?9?9E0?9?9?9?9?9?9?9?9?9?9?9*9?9*9*9?9*9,25.40,21.30,78,95651,874,1323,389,463,628,98,61611,64659,16685,2937,224,0.0,5,5,8333.0,380,9,999999999,77,0.2200,0,88,0.160,0.0,0.0
2016,7,21,9,6,?9?9?9?9E0?9?9?9?9?9?9?9?9?9?9?9*9?9*9*9?9*9,25.40,21.30,78,95651,874,1323,389,466,629,98,61611,64659,16685,2937,224,0.0,5,5,8333.0,380,9,999999999,77,0.2200,0,88,0.160,0.0,0.0
2016,7,21,9,7,?9?9?9?9E0?9?9?9?9?9?9?9?9?9?9?9*9?9*9*9?9*9,25.40,21.30,78,95651,874,1323,389,468,630,98,61611,64659,16685,2937,224,0.0,5,5,8333.0,380,9,999999999,77,0.2200,0,88,0.160,0.0,0.0
2016,7,21,9,8,?9?9?9?9E0?9?9?9?9?9?9?9?9?9?9?9*9?9*9*9?9*9,25.40,21.30,78,95651,874,1323,389,471,630,98,61611,64659,16685,2937,224,0.0,5,5,8333.0,380,9,999999999,77,0.2200,0,88,0.160,0.0,0.0
2016,7,21,9,9,?9?9?9?9E0?9?9?9?9?9?9?9?9?9?9?9*9?9*9*9?9*9,25.40,21.30,78,95651,874,1323,389,474,631,98,61611,64659,16685,2937,224,0.0,5,5,8333.0,380,9,999999999,77,0.2200,0,88,0.160,0.0,0.0
2016,7,21,9,10,?9?9?9?9E0?9?9?9?9?9?9?9?9?9?9?9*9?9*9*9?9*9,25.40,21.30,78,95651,874,1323,389,477,632,98,61611,64659,16685,2937,224,0.0,5,5,8333.0,380,9,999999999,77,0.2200,0,88,0.160,0.0,0.0
2016,7,21,9,11,?9?9?9?9E0?9?9?9?9?9?9?9?9?9?9?9*9?9*9*9?9*9,25.40,21.30,78,95651,874,1323,389,480,633,98,61611,64659,16685,2937,224,0.0,5,5,8333.0,380,9,999999999,77,0.2200,0,88,0.160,0.0,0.0
2016,7,21,9,12,?9?9?9?9E0?9?9?9?9?9?9?9?9?9?9?9*9?9*9*9?9*9,25.40,21.30,78,95651,874,1323,389,482,634,98,61611,64659,16685,2937,224,0.0,5,5,8333.0,380,9,999999999,77,0.2200,0,88,0.160,0.0,0.0
2016,7,21,9,13,?9?9?9?9E0?9?9?9?9?9?9?9?9?9?9?9*9?9*9*9?9*9,25.40,21.30,78,95651,874,1323,389,485,634,98,61611,64659,16685,2937,224,0.0,5,5,8333.0,380,9,999999999,77,0.2200,0,88,0.160,0.0,0.0
2016,7,21,9,14,?9?9?9?9E0?9?9?9?9?9?9?9?9?9?9?9*9?9*9*9?9*9,25.40,21.30,78,95651,874,1323,389,488,635,98,61611,64659,16685,2937,224,0.0,5,5,8333.0,380,9,999999999,77,0.2200,0,88,0.160,0.0,0.0
2016,7,21,9,15,?9?9?9?9E0?9?9?9?9?9?9?9?9?9?9?9*9?9*9*9?9*9,25.40,21.30,78,95651,874,1323,389,490,636,98,61611,64659,16685,2937,224,0.0,5,5,8333.0,380,9,999999999,77,0.2200,0,88,0.160,0.0,0.0
2016,7,21,9,16,?9?9?9?9E0?9?9?9?9?9?9?9?9?9?9?9*9?9*9*9?9*9,25.40,21.30,78,95651,874,1323,389,493,637,98,61611,64659,16685,2937,224,0.0,5,5,8333.0,380,9,999999999,77,0.2200,0,88,0.160,0.0,0.0
2016,7,21,9,17,?9?9?9?9E0?9?9?9?9?9?9?9?9?9?9?9*9?9*9*9?9*9,25.40,21.30,78,95651,874,1323,389,496,638,98,61611,64659,16685,2937,224,0.0,5,5,8333.0,380,9,999999999,77,0.2200,0,88,0.160,0.0,0.0
2016,7,21,9,18,?9?9?9?9E0?9?9?9?9?9?9?9?9?9?9?9*9?9*9*9?9*9,25.40,21.30,78,95651,874,1323,389,499,638,98,61611,64659,16685,2937,224,0.0,5,5,8333.0,380,9,999999999,77,0.2200,0,88,0.160,0.0,0.0
2016,7,21,9,19,?9?9?9?9E0?9?9?9?9?9?9?9?9?9?9?9*9?9*9*9?9*9,25.40,21.30,78,95651,874,1323,389,502,639,98,61611,64659,16685,2937,224,0.0,5,5,8333.0,380,9,999999999,77,0.2200,0,88,0.160,0.0,0.0
2016,7,21,9,20,?9?9?9?9E0?9?9?9?9?9?9?9?9?9?9?9*9?9*9*9?9*9,25.40,21.30,78,95651,874,1323,389,504,640,98,61611,64659,16685,2937,224,0.0,5,5,8333.0,380,9,999999999,77,0.2200,0,88,0.160,0.0,0.0
2016,7,21,9,21,?9?9?9?9E0?9?9?9?9?9?9?9?9?9?9?9*9?9*9*9?9*9,25.40,21.30,78,95651,874,1323,389,507,641,98,61611,64659,16685,2937,224,0.0,5,5,8333.0,380,9,999999999,77,0.2200,0,88,0.160,0.0,0.0
2016,7,21,9,22,?9?9?9?9E0?9?9?9?9?9?9?9?9?9?9?9*9?9*9*9?9*9,25.40,21.30,78,95651,874,1323,389,510,641,98,61611,64659,16685,2937,224,0.0,5,5,8333.0,380,9,999999999,77,0.2200,0,88,0.160,0.0,0.0
2016,7,21,9,23,?9?9?9?9E0?9?9?9?9?9?9?9?9?9?9?9*9?9*9*9?9*9,25.40,21.30,78,95651,874,1323,389,512,642,98,61611,64659,16685,2937,224,0.0,5,5,8333.0,380,9,999999999,77,0.2200,0,88,0.160,0.0,0.0
2016,7,21,9,24,?9?9?9?9E0?9?9?9?9?9?9?9?9?9?9?9*9?9*9*9?9*9,25.40,21.30,78,95651,874,1323,389,515,643,98,61611,64659,16685,2937,224,0.0,5,5,8333.0,380,9,999999999,77,0.2200,0,88,0.160,0.0,0.0
2016,7,21,9,25,?9?9?9?9E0?9?9?9?9?9?9?9?9?9?9?9*9?9*9*9?9*9,25.40,21.30,78,95651,874,1323,389,518,644,98,61611,64659,16685,2937,224,0.0,5,5,8333.0,380,9,999999999,77,0.2200,0,88,0.160,0.0,0.0
2016,7,21,9,26,?9?9?9?9E0?9?9?9?9?9?9?9?9?9?9?9*9?9*9*9?9*9,25.40,21.30,78,95651,874,1323,389,521,645,98,61611,64659,16685,2937,224,0.0,5,5,8333.0,380,9,999999999,77,0.2200,0,88,0.160,0.0,0.0
2016,7,21,9,27,?9?9?9?9E0?9?9?9?9?9?9?9?9?9?9?9*9?9*9*9?9*9,25.40,21.30,78,95651,874,1323,389,524,645,98,61611,64659,16685,2937,224,0.0,5,5,8333.0,380,9,999999999,77,0.2200,0,88,0.160,0.0,0.0
2016,7,21,9,28,?9?9?9?9E0?9?9?9?9?9?9?9?9?9?9?9*9?9*9*9?9*9,25.40,21.30,78,95651,874,1323,389,526,646,98,61611,64659,16685,2937,224,0.0,5,5,8333.0,380,9,999999999,77,0.2200,0,88,0.160,0.0,0.0
2016,7,21,9,29,?9?9?9?9E0?9?9?9?9?9?9?9?9?9?9?9*9?9*9*9?9*9,25.40,21.30,78,95651,874,1323,389,529,647,98,61611,64659,16685,2937,224,0.0,5,5,8333.0,380,9,999999999,77,0.2200,0,88,0.160,0.0,0.0
2016,7,21,9,30,?9?9?9?9E0?9?9?9?9?9?9?9?9?9?9?9*9?9*9*9?9*9,25.40,21.30,78,95651,874,1323,389,532,648,98,61611,64659,16685,2937,224,0.0,5,5,8333.0,380,9,999999999,77,0.2200,0,88,0.160,0.0,0.0
2016,7,21,9,31,?9?9?9?9E0?9?9?9?9?9?9?9?9?9?9?9*9?9*9*9?9*9,25.40,21.30,78,95651,874,1323,389,534,648,98,61611,64659,16685,2937,224,0.0,5,5,8333.0,380,9,999999999,77,0.2200,0,88,0.160,0.0,0.0
2016,7,21,9,32,?9?9?9?9E0?9?9?9?9?9?9?9?9?9?9?9*9?9*9*9?9*9,25.40,21.30,78,95651,874,1323,389,537,649,98,61611,64659,16685,2937,224,0.0,5,5,8333.0,380,9,999999999,77,0.2200,0,88,0.160,0.0,0.0
2016,7,21,9,33,?9?9?9?9E0?9?9?9?9?9?9?9?9?9?9?9*9?9*9*9?9*9,25.40,21.30,78,95651,874,1323,389,540,650,98,61611,64659,16685,2937,224,0.0,5,5,8333.0,380,9,999999999,77,0.2200,0,88,0.160,0.0,0.0
2016,7,21,9,34,?9?9?9?9E0?9?9?9?9?9?9?9?9?9?9?9*9?9*9*9?9*9,25.40,21.30,78,95651,874,1323,389,543,651,98,61611,64659,16685,2937,224,0.0,5,5,8333.0,380,9,999999999,77,0.2200,0,88,0.160,0.0,0.0
2016,7,21,9,35,?9?9?9?9E0?9?9?9?9?9?9?9?9?9?9?9*9?9*9*9?9*9,25.40,21.30,78,95651,874,1323,389,546,652,98,61611,64659,16685,2937,224,0.0,5,5,8333.0,380,9,999999999,77,0.2200,0,88,0.160,0.0,0.0
2016,7,21,9,36,?9?9?9?9E0?9?9?9?9?9?9?9?9?9?9?9*9?9*9*9?9*9,25.40,21.30,78,95651,874,1323,389,548,652,98,61611,64659,16685,2937,224,0.0,5,5,8333.0,380,9,999999999,77,0.2200,0,88,0.160,0.0,0.0
2016,7,21,9,37,?9?9?9?9E0?9?9?9?9?9?9?9?9?9?9?9*9?9*9*9?9*9,25.40,21.30,78,95651,874,1323,389,551,653,98,61611,64659,16685,2937,224,0.0,5,5,8333.0,380,9,999999999,77,0.2200,0,88,0.160,0.0,0.0
2016,7,21,9,38,?9?9?9?9E0?9?9?9?9?9?9?9?9?9?9?9*9?9*9*9?9*9,25.40,21.30,78,95651,874,1323,389,554,654,98,61611,64659,16685,2937,224,0.0,5,5,8333.0,380,9,999999999,77,0.2200,0,88,0.160,0.0,0.0
2016,7,21,9,39,?9?9?9?9E0?9?9?9?9?9?9?9?9?9?9?9*9?9*9*9?9*9,25.40,21.30,78,95651,874,1323,389,556,655,98,61611,64659,16685,2937,224,0.0,5,5,8333.0,380,9,999999999,77,0.2200,0,88,0.160,0.0,0.0
2016,7,21,9,40,?9?9?9?9E0?9?9?9?9?9?9?9?9?9?9?9*9?9*9*9?9*9,25.40,21.30,78,95651,874,1323,389,559,656,98,61611,64659,16685,2937,224,0.0,5,5,8333.0,380,9,999999999,77,0.2200,0,88,0.160,0.0,0.0
2016,7,21,9,41,?9?9?9?9E0?9?9?9?9?9?9?9?9?9?9?9*9?9*9*9?9*9,25.40,21.30,78,95651,874,1323,389,562,656,98,61611,64659,16685,2937,224,0.0,5,5,8333.0,380,9,999999999,77,0.2200,0,88,0.160,0.0,0.0
2016,7,21,9,42,?9?9?9?9E0?9?9?9?9?9?9?9?9?9?9?9*9?9*9*9?9*9,25.40,21.30,78,95651,874,1323,389,565,657,98,61611,64659,16685,2937,224,0.0,5,5,8333.0,380,9,999999999,77,0.2200,0,88,0.160,0.0,0.0
2016,7,21,9,43,?9?9?9?9E0?9?9?9?9?9?9?9?9?9?9?9*9?9*9*9?9*9,25.40,21.30,78,95651,874,1323,389,568,658,98,61611,64659,16685,2937,224,0.0,5,5,8333.0,380,9,999999999,77,0.2200,0,88,0.160,0.0,0.0
2016,7,21,9,44,?9?9?9?9E0?9?9?9?9?9?9?9?9?9?9?9*9?9*9*9?9*9,25.40,21.30,78,95651,874,1323,389,570,659,98,61611,64659,16685,2937,224,0.0,5,5,8333.0,380,9,999999999,77,0.2200,0,88,0.160,0.0,0.0
2016,7,21,9,45,?9?9?9?9E0?9?9?9?9?9?9?9?9?9?9?9*9?9*9*9?9*9,25.40,21.30,78,95651,874,1323,389,573,659,98,61611,64659,16685,2937,224,0.0,5,5,8333.0,380,9,999999999,77,0.2200,0,88,0.160,0.0,0.0
2016,7,21,9,46,?9?9?9?9E0?9?9?9?9?9?9?9?9?9?9?9*9?9*9*9?9*9,25.40,21.30,78,95651,874,1323,389,576,660,98,61611,64659,16685,2937,224,0.0,5,5,8333.0,380,9,999999999,77,0.2200,0,88,0.160,0.0,0.0
2016,7,21,9,47,?9?9?9?9E0?9?9?9?9?9?9?9?9?9?9?9*9?9*9*9?9*9,25.40,21.30,78,95651,874,1323,389,578,661,98,61611,64659,16685,2937,224,0.0,5,5,8333.0,380,9,999999999,77,0.2200,0,88,0.160,0.0,0.0
2016,7,21,9,48,?9?9?9?9E0?9?9?9?9?9?9?9?9?9?9?9*9?9*9*9?9*9,25.40,21.30,78,95651,874,1323,389,581,662,98,61611,64659,16685,2937,224,0.0,5,5,8333.0,380,9,999999999,77,0.2200,0,88,0.160,0.0,0.0
2016,7,21,9,49,?9?9?9?9E0?9?9?9?9?9?9?9?9?9?9?9*9?9*9*9?9*9,25.40,21.30,78,95651,874,1323,389,584,663,98,61611,64659,16685,2937,224,0.0,5,5,8333.0,380,9,999999999,77,0.2200,0,88,0.160,0.0,0.0
2016,7,21,9,50,?9?9?9?9E0?9?9?9?9?9?9?9?9?9?9?9*9?9*9*9?9*9,25.40,21.30,78,95651,874,1323,389,587,663,98,61611,64659,16685,2937,224,0.0,5,5,8333.0,380,9,999999999,77,0.2200,0,88,0.160,0.0,0.0
2016,7,21,9,51,?9?9?9?9E0?9?9?9?9?9?9?9?9?9?9?9*9?9*9*9?9*9,25.40,21.30,78,95651,874,1323,389,590,664,98,61611,64659,16685,2937,224,0.0,5,5,8333.0,380,9,999999999,77,0.2200,0,88,0.160,0.0,0.0
2016,7,21,9,52,?9?9?9?9E0?9?9?9?9?9?9?9?9?9?9?9*9?9*9*9?9*9,25.40,21.30,78,95651,874,1323,389,592,665,98,61611,64659,16685,2937,224,0.0,5,5,8333.0,380,9,999999999,77,0.2200,0,88,0.160,0.0,0.0
2016,7,21,9,53,?9?9?9?9E0?9?9?9?9?9?9?9?9?9?9?9*9?9*9*9?9*9,25.40,21.30,78,95651,874,1323,389,595,666,98,61611,64659,16685,2937,224,0.0,5,5,8333.0,380,9,999999999,77,0.2200,0,88,0.160,0.0,0.0
2016,7,21,9,54,?9?9?9?9E0?9?9?9?9?9?9?9?9?9?9?9*9?9*9*9?9*9,25.40,21.30,78,95651,874,1323,389,598,667,98,61611,64659,16685,2937,224,0.0,5,5,8333.0,380,9,999999999,77,0.2200,0,88,0.160,0.0,0.0
2016,7,21,9,55,?9?9?9?9E0?9?9?9?9?9?9?9?9?9?9?9*9?9*9*9?9*9,25.40,21.30,78,95651,874,1323,389,600,667,98,61611,64659,16685,2937,224,0.0,5,5,8333.0,380,9,999999999,77,0.2200,0,88,0.160,0.0,0.0
2016,7,21,9,56,?9?9?9?9E0?9?9?9?9?9?9?9?9?9?9?9*9?9*9*9?9*9,25.40,21.30,78,95651,874,1323,389,603,668,98,61611,64659,16685,2937,224,0.0,5,5,8333.0,380,9,999999999,77,0.2200,0,88,0.160,0.0,0.0
2016,7,21,9,57,?9?9?9?9E0?9?9?9?9?9?9?9?9?9?9?9*9?9*9*9?9*9,25.40,21.30,78,95651,874,1323,389,606,669,98,61611,64659,16685,2937,224,0.0,5,5,8333.0,380,9,999999999,77,0.2200,0,88,0.160,0.0,0.0
2016,7,21,9,58,?9?9?9?9E0?9?9?9?9?9?9?9?9?9?9?9*9?9*9*9?9*9,25.40,21.30,78,95651,874,1323,389,609,670,98,61611,64659,16685,2937,224,0.0,5,5,8333.0,380,9,999999999,77,0.2200,0,88,0.160,0.0,0.0
2016,7,21,9,59,?9?9?9?9E0?9?9?9?9?9?9?9?9?9?9?9*9?9*9*9?9*9,25.40,21.30,78,95651,874,1323,389,612,670,98,61611,64659,16685,2937,224,0.0,5,5,8333.0,380,9,999999999,77,0.2200,0,88,0.160,0.0,0.0
2016,7,21,9,60,?9?9?9?9E0?9?9?9?9?9?9?9?9?9?9?9*9?9*9*9?9*9,25.40,21.30,78,95651,874,1323,389,614,671,98,61611,64659,16685,2937,224,0.0,5,5,8333.0,380,9,999999999,77,0.2200,0,88,0.160,0.0,0.0
2016,7,21,10,1,?9?9?9?9E0?9?9?9?9?9?9?9?9?9?9?9*9?9*9*9?9*9,25.40,21.30,78,95651,1084,1323,396,617,672,119,77407,62713,19782,2561,240,0.0,5,5,8333.0,702,9,999999999,77,0.2200,0,88,0.160,0.0,0.0
2016,7,21,10,2,?9?9?9?9E0?9?9?9?9?9?9?9?9?9?9?9*9?9*9*9?9*9,25.40,21.30,78,95651,1084,1323,396,620,673,119,77407,62713,19782,2561,240,0.0,5,5,8333.0,702,9,999999999,77,0.2200,0,88,0.160,0.0,0.0
2016,7,21,10,3,?9?9?9?9E0?9?9?9?9?9?9?9?9?9?9?9*9?9*9*9?9*9,25.40,21.30,78,95651,1084,1323,396,622,674,119,77407,62713,19782,2561,240,0.0,5,5,8333.0,702,9,999999999,77,0.2200,0,88,0.160,0.0,0.0
2016,7,21,10,4,?9?9?9?9E0?9?9?9?9?9?9?9?9?9?9?9*9?9*9*9?9*9,25.40,21.30,78,95651,1084,1323,396,625,675,119,77407,62713,19782,2561,240,0.0,5,5,8333.0,702,9,999999999,77,0.2200,0,88,0.160,0.0,0.0
2016,7,21,10,5,?9?9?9?9E0?9?9?9?9?9?9?9?9?9?9?9*9?9*9*9?9*9,25.40,21.30,78,95651,1084,1323,396,628,676,119,77407,62713,19782,2561,240,0.0,5,5,8333.0,702,9,999999999,77,0.2200,0,88,0.160,0.0,0.0
2016,7,21,10,6,?9?9?9?9E0?9?9?9?9?9?9?9?9?9?9?9*9?9*9*9?9*9,25.40,21.30,78,95651,1084,1323,396,630,677,119,77407,62713,19782,2561,240,0.0,5,5,8333.0,702,9,999999999,77,0.2200,0,88,0.160,0.0,0.0
2016,7,21,10,7,?9?9?9?9E0?9?9?9?9?9?9?9?9?9?9?9*9?9*9*9?9*9,25.40,21.30,78,95651,1084,1323,396,633,678,119,77407,62713,19782,2561,240,0.1,5,5,8333.0,702,9,999999999,77,0.2200,0,88,0.160,0.0,0.0
2016,7,21,10,8,?9?9?9?9E0?9?9?9?9?9?9?9?9?9?9?9*9?9*9*9?9*9,25.40,21.30,78,95651,1084,1323,396,635,679,119,77407,62713,19782,2561,240,0.1,5,5,8333.0,702,9,999999999,77,0.2200,0,88,0.160,0.0,0.0
2016,7,21,10,9,?9?9?9?9E0?9?9?9?9?9?9?9?9?9?9?9*9?9*9*9?9*9,25.40,21.30,78,95651,1084,1323,396,638,680,119,77407,62713,19782,2561,240,0.1,5,5,8333.0,702,9,999999999,77,0.2200,0,88,0.160,0.0,0.0
2016,7,21,10,10,?9?9?9?9E0?9?9?9?9?9?9?9?9?9?9?9*9?9*9*9?9*9,25.40,21.30,78,95651,1084,1323,396,641,681,119,77407,62713,19782,2561,240,0.1,5,5,8333.0,702,9,999999999,77,0.2200,0,88,0.160,0.0,0.0
2016,7,21,10,11,?9?9?9?9E0?9?9?9?9?9?9?9?9?9?9?9*9?9*9*9?9*9,25.40,21.30,78,95651,1084,1323,396,643,682,119,77407,62713,19782,2561,240,0.1,5,5,8333.0,702,9,999999999,77,0.2200,0,88,0.160,0.0,0.0
2016,7,21,10,12,?9?9?9?9E0?9?9?9?9?9?9?9?9?9?9?9*9?9*9*9?9*9,25.40,21.30,78,95651,1084,1323,396,646,683,119,77407,62713,19782,2561,240,0.1,5,5,8333.0,702,9,999999999,77,0.2200,0,88,0.160,0.0,0.0
2016,7,21,10,13,?9?9?9?9E0?9?9?9?9?9?9?9?9?9?9?9*9?9*9*9?9*9,25.40,21.30,78,95651,1084,1323,396,649,684,119,77407,62713,19782,2561,240,0.1,5,5,8333.0,702,9,999999999,77,0.2200,0,88,0.160,0.0,0.0
2016,7,21,10,14,?9?9?9?9E0?9?9?9?9?9?9?9?9?9?9?9*9?9*9*9?9*9,25.40,21.30,78,95651,1084,1323,396,651,685,119,77407,62713,19782,2561,240,0.1,5,5,8333.0,702,9,999999999,77,0.2200,0,88,0.160,0.0,0.0
2016,7,21,10,15,?9?9?9?9E0?9?9?9?9?9?9?9?9?9?9?9*9?9*9*9?9*9,25.40,21.30,78,95651,1084,1323,396,654,686,119,77407,62713,19782,2561,240,0.1,5,5,8333.0,702,9,999999999,77,0.2200,0,88,0.160,0.0,0.0
2016,7,21,10,16,?9?9?9?9E0?9?9?9?9?9?9?9?9?9?9?9*9?9*9*9?9*9,25.40,21.30,78,95651,1084,1323,396,656,687,119,77407,62713,19782,2561,240,0.1,5,5,8333.0,702,9,999999999,77,0.2200,0,88,0.160,0.0,0.0
2016,7,21,10,17,?9?9?9?9E0?9?9?9?9?9?9?9?9?9?9?9*9?9*9*9?9*9,25.40,21.30,78,95651,1084,1323,396,659,688,119,77407,62713,19782,2561,240,0.1,5,5,8333.0,702,9,999999999,77,0.2200,0,88,0.160,0.0,0.0
2016,7,21,10,18,?9?9?9?9E0?9?9?9?9?9?9?9?9?9?9?9*9?9*9*9?9*9,25.40,21.30,78,95651,1084,1323,396,662,689,119,77407,62713,19782,2561,240,0.1,5,5,8333.0,702,9,999999999,77,0.2200,0,88,0.160,0.0,0.0
2016,7,21,10,19,?9?9?9?9E0?9?9?9?9?9?9?9?9?9?9?9*9?9*9*9?9*9,25.40,21.30,78,95651,1084,1323,396,664,690,119,77407,62713,19782,2561,240,0.1,5,5,8333.0,702,9,999999999,77,0.2200,0,88,0.160,0.0,0.0
2016,7,21,10,20,?9?9?9?9E0?9?9?9?9?9?9?9?9?9?9?9*9?9*9*9?9*9,25.40,21.30,78,95651,1084,1323,396,667,691,119,77407,62713,19782,2561,240,0.2,5,5,8333.0,702,9,999999999,77,0.2200,0,88,0.160,0.0,0.0
2016,7,21,10,21,?9?9?9?9E0?9?9?9?9?9?9?9?9?9?9?9*9?9*9*9?9*9,25.40,21.30,78,95651,1084,1323,396,670,692,119,77407,62713,19782,2561,240,0.2,5,5,8333.0,702,9,999999999,77,0.2200,0,88,0.160,0.0,0.0
2016,7,21,10,22,?9?9?9?9E0?9?9?9?9?9?9?9?9?9?9?9*9?9*9*9?9*9,25.40,21.30,78,95651,1084,1323,396,672,693,119,77407,62713,19782,2561,240,0.2,5,5,8333.0,702,9,999999999,77,0.2200,0,88,0.160,0.0,0.0
2016,7,21,10,23,?9?9?9?9E0?9?9?9?9?9?9?9?9?9?9?9*9?9*9*9?9*9,25.40,21.30,78,95651,1084,1323,396,675,694,119,77407,62713,19782,2561,240,0.2,5,5,8333.0,702,9,999999999,77,0.2200,0,88,0.160,0.0,0.0
2016,7,21,10,24,?9?9?9?9E0?9?9?9?9?9?9?9?9?9?9?9*9?9*9*9?9*9,25.40,21.30,78,95651,1084,1323,396,678,695,119,77407,62713,19782,2561,240,0.2,5,5,8333.0,702,9,999999999,77,0.2200,0,88,0.160,0.0,0.0
2016,7,21,10,25,?9?9?9?9E0?9?9?9?9?9?9?9?9?9?9?9*9?9*9*9?9*9,25.40,21.30,78,95651,1084,1323,396,680,696,119,77407,62713,19782,2561,240,0.2,5,5,8333.0,702,9,999999999,77,0.2200,0,88,0.160,0.0,0.0
2016,7,21,10,26,?9?9?9?9E0?9?9?9?9?9?9?9?9?9?9?9*9?9*9*9?9*9,25.40,21.30,78,95651,1084,1323,396,683,697,119,77407,62713,19782,2561,240,0.2,5,5,8333.0,702,9,999999999,77,0.2200,0,88,0.160,0.0,0.0
2016,7,21,10,27,?9?9?9?9E0?9?9?9?9?9?9?9?9?9?9?9*9?9*9*9?9*9,25.40,21.30,78,95651,1084,1323,396,685,698,119,77407,62713,19782,2561,240,0.2,5,5,8333.0,702,9,999999999,77,0.2200,0,88,0.160,0.0,0.0
2016,7,21,10,28,?9?9?9?9E0?9?9?9?9?9?9?9?9?9?9?9*9?9*9*9?9*9,25.40,21.30,78,95651,1084,1323,396,688,699,119,77407,62713,19782,2561,240,0.2,5,5,8333.0,702,9,999999999,77,0.2200,0,88,0.160,0.0,0.0
2016,7,21,10,29,?9?9?9?9E0?9?9?9?9?9?9?9?9?9?9?9*9?9*9*9?9*9,25.40,21.30,78,95651,1084,1323,396,691,700,119,77407,62713,19782,2561,240,0.2,5,5,8333.0,702,9,999999999,77,0.2200,0,88,0.160,0.0,0.0
2016,7,21,10,30,?9?9?9?9E0?9?9?9?9?9?9?9?9?9?9?9*9?9*9*9?9*9,25.40,21.30,78,95651,1084,1323,396,693,701,119,77407,62713,19782,2561,240,0.2,5,5,8333.0,702,9,999999999,77,0.2200,0,88,0.160,0.0,0.0
2016,7,21,10,31,?9?9?9?9E0?9?9?9?9?9?9?9?9?9?9?9*9?9*9*9?9*9,25.40,21.30,78,95651,1084,1323,396,696,702,119,77407,62713,19782,2561,240,0.2,5,5,8333.0,702,9,999999999,77,0.2200,0,88,0.160,0.0,0.0
2016,7,21,10,32,?9?9?9?9E0?9?9?9?9?9?9?9?9?9?9?9*9?9*9*9?9*9,25.40,21.30,78,95651,1084,1323,396,699,704,119,77407,62713,19782,2561,240,0.3,5,5,8333.0,702,9,999999999,77,0.2200,0,88,0.160,0.0,0.0
2016,7,21,10,33,?9?9?9?9E0?9?9?9?9?9?9?9?9?9?9?9*9?9*9*9?9*9,25.40,21.30,78,95651,1084,1323,396,701,705,119,77407,62713,19782,2561,240,0.3,5,5,8333.0,702,9,999999999,77,0.2200,0,88,0.160,0.0,0.0
2016,7,21,10,34,?9?9?9?9E0?9?9?9?9?9?9?9?9?9?9?9*9?9*9*9?9*9,25.40,21.30,78,95651,1084,1323,396,704,706,119,77407,62713,19782,2561,240,0.3,5,5,8333.0,702,9,999999999,77,0.2200,0,88,0.160,0.0,0.0
2016,7,21,10,35,?9?9?9?9E0?9?9?9?9?9?9?9?9?9?9?9*9?9*9*9?9*9,25.40,21.30,78,95651,1084,1323,396,707,707,119,77407,62713,19782,2561,240,0.3,5,5,8333.0,702,9,999999999,77,0.2200,0,88,0.160,0.0,0.0
2016,7,21,10,36,?9?9?9?9E0?9?9?9?9?9?9?9?9?9?9?9*9?9*9*9?9*9,25.40,21.30,78,95651,1084,1323,396,709,708,119,77407,62713,19782,2561,240,0.3,5,5,8333.0,702,9,999999999,77,0.2200,0,88,0.160,0.0,0.0
2016,7,21,10,37,?9?9?9?9E0?9?9?9?9?9?9?9?9?9?9?9*9?9*9*9?9*9,25.40,21.30,78,95651,1084,1323,396,712,709,119,77407,62713,19782,2561,240,0.3,5,5,8333.0,702,9,999999999,77,0.2200,0,88,0.160,0.0,0.0
2016,7,21,10,38,?9?9?9?9E0?9?9?9?9?9?9?9?9?9?9?9*9?9*9*9?9*9,25.40,21.30,78,95651,1084,1323,396,714,710,119,77407,62713,19782,2561,240,0.3,5,5,8333.0,702,9,999999999,77,0.2200,0,88,0.160,0.0,0.0
2016,7,21,10,39,?9?9?9?9E0?9?9?9?9?9?9?9?9?9?9?9*9?9*9*9?9*9,25.40,21.30,78,95651,1084,1323,396,717,711,119,77407,62713,19782,2561,240,0.3,5,5,8333.0,702,9,999999999,77,0.2200,0,88,0.160,0.0,0.0
2016,7,21,10,40,?9?9?9?9E0?9?9?9?9?9?9?9?9?9?9?9*9?9*9*9?9*9,25.40,21.30,78,95651,1084,1323,396,720,712,119,77407,62713,19782,2561,240,0.3,5,5,8333.0,702,9,999999999,77,0.2200,0,88,0.160,0.0,0.0
2016,7,21,10,41,?9?9?9?9E0?9?9?9?9?9?9?9?9?9?9?9*9?9*9*9?9*9,25.40,21.30,78,95651,1084,1323,396,722,713,119,77407,62713,19782,2561,240,0.3,5,5,8333.0,702,9,999999999,77,0.2200,0,88,0.160,0.0,0.0
2016,7,21,10,42,?9?9?9?9E0?9?9?9?9?9?9?9?9?9?9?9*9?9*9*9?9*9,25.40,21.30,78,95651,1084,1323,396,725,714,119,77407,62713,19782,2561,240,0.3,5,5,8333.0,702,9,999999999,77,0.2200,0,88,0.160,0.0,0.0
2016,7,21,10,43,?9?9?9?9E0?9?9?9?9?9?9?9?9?9?9?9*9?9*9*9?9*9,25.40,21.30,78,95651,1084,1323,396,728,715,119,77407,62713,19782,2561,240,0.3,5,5,8333.0,702,9,999999999,77,0.2200,0,88,0.160,0.0,0.0
2016,7,21,10,44,?9?9?9?9E0?9?9?9?9?9?9?9?9?9?9?9*9?9*9*9?9*9,25.40,21.30,78,95651,1084,1323,396,730,716,119,77407,62713,19782,2561,240,0.4,5,5,8333.0,702,9,999999999,77,0.2200,0,88,0.160,0.0,0.0
2016,7,21,10,45,?9?9?9?9E0?9?9?9?9?9?9?9?9?9?9?9*9?9*9*9?9*9,25.40,21.30,78,95651,1084,1323,396,733,717,119,77407,62713,19782,2561,240,0.4,5,5,8333.0,702,9,999999999,77,0.2200,0,88,0.160,0.0,0.0
2016,7,21,10,46,?9?9?9?9E0?9?9?9?9?9?9?9?9?9?9?9*9?9*9*9?9*9,25.40,21.30,78,95651,1084,1323,396,736,718,119,77407,62713,19782,2561,240,0.4,5,5,8333.0,702,9,999999999,77,0.2200,0,88,0.160,0.0,0.0
2016,7,21,10,47,?9?9?9?9E0?9?9?9?9?9?9?9?9?9?9?9*9?9*9*9?9*9,25.40,21.30,78,95651,1084,1323,396,738,719,119,77407,62713,19782,2561,240,0.4,5,5,8333.0,702,9,999999999,77,0.2200,0,88,0.160,0.0,0.0
2016,7,21,10,48,?9?9?9?9E0?9?9?9?9?9?9?9?9?9?9?9*9?9*9*9?9*9,25.40,21.30,78,95651,1084,1323,396,741,720,119,77407,62713,19782,2561,240,0.4,5,5,8333.0,702,9,999999999,77,0.2200,0,88,0.160,0.0,0.0
2016,7,21,10,49,?9?9?9?9E0?9?9?9?9?9?9?9?9?9?9?9*9?9*9*9?9*9,25.40,21.30,78,95651,1084,1323,396,743,721,119,77407,62713,19782,2561,240,0.4,5,5,8333.0,702,9,999999999,77,0.2200,0,88,0.160,0.0,0.0
2016,7,21,10,50,?9?9?9?9E0?9?9?9?9?9?9?9?9?9?9?9*9?9*9*9?9*9,25.40,21.30,78,95651,1084,1323,396,746,722,119,77407,62713,19782,2561,240,0.4,5,5,8333.0,702,9,999999999,77,0.2200,0,88,0.160,0.0,0.0
2016,7,21,10,51,?9?9?9?9E0?9?9?9?9?9?9?9?9?9?9?9*9?9*9*9?9*9,25.40,21.30,78,95651,1084,1323,396,749,723,119,77407,62713,19782,2561,240,0.4,5,5,8333.0,702,9,999999999,77,0.2200,0,88,0.160,0.0,0.0
2016,7,21,10,52,?9?9?9?9E0?9?9?9?9?9?9?9?9?9?9?9*9?9*9*9?9*9,25.40,21.30,78,95651,1084,1323,396,751,724,119,77407,62713,19782,2561,240,0.4,5,5,8333.0,702,9,999999999,77,0.2200,0,88,0.160,0.0,0.0
2016,7,21,10,53,?9?9?9?9E0?9?9?9?9?9?9?9?9?9?9?9*9?9*9*9?9*9,25.40,21.30,78,95651,1084,1323,396,754,725,119,77407,62713,19782,2561,240,0.4,5,5,8333.0,702,9,999999999,77,0.2200,0,88,0.160,0.0,0.0
2016,7,21,10,54,?9?9?9?9E0?9?9?9?9?9?9?9?9?9?9?9*9?9*9*9?9*9,25.40,21.30,78,95651,1084,1323,396,757,726,119,77407,62713,19782,2561,240,0.4,5,5,8333.0,702,9,999999999,77,0.2200,0,88,0.160,0.0,0.0
2016,7,21,10,55,?9?9?9?9E0?9?9?9?9?9?9?9?9?9?9?9*9?9*9*9?9*9,25.40,21.30,78,95651,1084,1323,396,759,727,119,77407,62713,19782,2561,240,0.5,5,5,8333.0,702,9,999999999,77,0.2200,0,88,0.160,0.0,0.0
2016,7,21,10,56,?9?9?9?9E0?9?9?9?9?9?9?9?9?9?9?9*9?9*9*9?9*9,25.40,21.30,78,95651,1084,1323,396,762,728,119,77407,62713,19782,2561,240,0.5,5,5,8333.0,702,9,999999999,77,0.2200,0,88,0.160,0.0,0.0
2016,7,21,10,57,?9?9?9?9E0?9?9?9?9?9?9?9?9?9?9?9*9?9*9*9?9*9,25.40,21.30,78,95651,1084,1323,396,764,729,119,77407,62713,19782,2561,240,0.5,5,5,8333.0,702,9,999999999,77,0.2200,0,88,0.160,0.0,0.0
2016,7,21,10,58,?9?9?9?9E0?9?9?9?9?9?9?9?9?9?9?9*9?9*9*9?9*9,25.40,21.30,78,95651,1084,1323,396,767,730,119,77407,62713,19782,2561,240,0.5,5,5,8333.0,702,9,999999999,77,0.2200,0,88,0.160,0.0,0.0
2016,7,21,10,59,?9?9?9?9E0?9?9?9?9?9?9?9?9?9?9?9*9?9*9*9?9*9,25.40,21.30,78,95651,1084,1323,396,770,731,119,77407,62713,19782,2561,240,0.5,5,5,8333.0,702,9,999999999,77,0.2200,0,88,0.160,0.0,0.0
2016,7,21,10,60,?9?9?9?9E0?9?9?9?9?9?9?9?9?9?9?9*9?9*9*9?9*9,25.40,21.30,78,95651,1084,1323,396,772,732,119,77407,62713,19782,2561,240,0.5,5,5,8333.0,702,9,999999999,77,0.2200,0,88,0.160,0.0,0.0
2016,7,21,11,1,?9?9?9?9E0?9?9?9*9*9?9?9?9?9?9?9*9?9*9*9?9*9,27.00,21.50,72,95649,1224,1323,397,775,733,133,86984,53750,20186,2533,251,0.5,6,6,8333.0,752,9,999999999,78,0.2200,0,88,0.160,0.0,0.0
2016,7,21,11,2,?9?9?9?9E0?9?9?9*9*9?9?9?9?9?9?9*9?9*9*9?9*9,27.00,21.50,72,95649,1224,1323,397,776,734,133,86984,53750,20186,2533,251,0.5,6,6,8333.0,752,9,999999999,78,0.2200,0,88,0.160,0.0,0.0
2016,7,21,11,3,?9?9?9?9E0?9?9?9*9*9?9?9?9?9?9?9*9?9*9*9?9*9,27.00,21.50,72,95649,1224,1323,397,778,734,133,86984,53750,20186,2533,251,0.5,6,6,8333.0,752,9,999999999,78,0.2200,0,88,0.160,0.0,0.0
2016,7,21,11,4,?9?9?9?9E0?9?9?9*9*9?9?9?9?9?9?9*9?9*9*9?9*9,27.00,21.50,72,95649,1224,1323,397,779,735,133,86984,53750,20186,2533,251,0.5,6,6,8333.0,752,9,999999999,78,0.2200,0,88,0.160,0.0,0.0
2016,7,21,11,5,?9?9?9?9E0?9?9?9*9*9?9?9?9?9?9?9*9?9*9*9?9*9,27.00,21.50,72,95649,1224,1323,397,781,735,133,86984,53750,20186,2533,251,0.5,6,6,8333.0,752,9,999999999,78,0.2200,0,88,0.160,0.0,0.0
2016,7,21,11,6,?9?9?9?9E0?9?9?9*9*9?9?9?9?9?9?9*9?9*9*9?9*9,27.00,21.50,72,95649,1224,1323,397,782,736,133,86984,53750,20186,2533,251,0.5,6,6,8333.0,752,9,999999999,78,0.2200,0,88,0.160,0.0,0.0
2016,7,21,11,7,?9?9?9?9E0?9?9?9*9*9?9?9?9?9?9?9*9?9*9*9?9*9,27.00,21.50,72,95649,1224,1323,397,784,736,133,86984,53750,20186,2533,251,0.6,6,6,8333.0,752,9,999999999,78,0.2200,0,88,0.160,0.0,0.0
2016,7,21,11,8,?9?9?9?9E0?9?9?9*9*9?9?9?9?9?9?9*9?9*9*9?9*9,27.00,21.50,72,95649,1224,1323,397,785,737,133,86984,53750,20186,2533,251,0.6,6,6,8333.0,752,9,999999999,78,0.2200,0,88,0.160,0.0,0.0
2016,7,21,11,9,?9?9?9?9E0?9?9?9*9*9?9?9?9?9?9?9*9?9*9*9?9*9,27.00,21.50,72,95649,1224,1323,397,786,737,133,86984,53750,20186,2533,251,0.6,6,6,8333.0,752,9,999999999,78,0.2200,0,88,0.160,0.0,0.0
2016,7,21,11,10,?9?9?9?9E0?9?9?9*9*9?9?9?9?9?9?9*9?9*9*9?9*9,27.00,21.50,72,95649,1224,1323,397,788,738,133,86984,53750,20186,2533,251,0.6,6,6,8333.0,752,9,999999999,78,0.2200,0,88,0.160,0.0,0.0
2016,7,21,11,11,?9?9?9?9E0?9?9?9*9*9?9?9?9?9?9?9*9?9*9*9?9*9,27.00,21.50,72,95649,1224,1323,397,789,738,133,86984,53750,20186,2533,251,0.6,6,6,8333.0,752,9,999999999,78,0.2200,0,88,0.160,0.0,0.0
2016,7,21,11,12,?9?9?9?9E0?9?9?9*9*9?9?9?9?9?9?9*9?9*9*9?9*9,27.00,21.50,72,95649,1224,1323,397,791,739,133,86984,53750,20186,2533,251,0.6,6,6,8333.0,752,9,999999999,78,0.2200,0,88,0.160,0.0,0.0
2016,7,21,11,13,?9?9?9?9E0?9?9?9*9*9?9?9?9?9?9?9*9?9*9*9?9*9,27.00,21.50,72,95649,1224,1323,397,792,740,133,86984,53750,20186,2533,251,0.6,6,6,8333.0,752,9,999999999,78,0.2200,0,88,0.160,0.0,0.0
2016,7,21,11,14,?9?9?9?9E0?9?9?9*9*9?9?9?9?9?9?9*9?9*9*9?9*9,27.00,21.50,72,95649,1224,1323,397,794,740,133,86984,53750,20186,2533,251,0.6,6,6,8333.0,752,9,999999999,78,0.2200,0,88,0.160,0.0,0.0
2016,7,21,11,15,?9?9?9?9E0?9?9?9*9*9?9?9?9?9?9?9*9?9*9*9?9*9,27.00,21.50,72,95649,1224,1323,397,795,741,133,86984,53750,20186,2533,251,0.6,6,6,8333.0,752,9,999999999,78,0.2200,0,88,0.160,0.0,0.0
2016,7,21,11,16,?9?9?9?9E0?9?9?9*9*9?9?9?9?9?9?9*9?9*9*9?9*9,27.00,21.50,72,95649,1224,1323,397,796,741,133,86984,53750,20186,2533,251,0.6,6,6,8333.0,752,9,999999999,78,0.2200,0,88,0.160,0.0,0.0
2016,7,21,11,17,?9?9?9?9E0?9?9?9*9*9?9?9?9?9?9?9*9?9*9*9?9*9,27.00,21.50,72,95649,1224,1323,397,798,742,133,86984,53750,20186,2533,251,0.6,6,6,8333.0,752,9,999999999,78,0.2200,0,88,0.160,0.0,0.0
2016,7,21,11,18,?9?9?9?9E0?9?9?9*9*9?9?9?9?9?9?9*9?9*9*9?9*9,27.00,21.50,72,95649,1224,1323,397,799,742,133,86984,53750,20186,2533,251,0.6,6,6,8333.0,752,9,999999999,78,0.2200,0,88,0.160,0.0,0.0
2016,7,21,11,19,?9?9?9?9E0?9?9?9*9*9?9?9?9?9?9?9*9?9*9*9?9*9,27.00,21.50,72,95649,1224,1323,397,801,743,133,86984,53750,20186,2533,251,0.7,6,6,8333.0,752,9,999999999,78,0.2200,0,88,0.160,0.0,0.0
2016,7,21,11,20,?9?9?9?9E0?9?9?9*9*9?9?9?9?9?9?9*9?9*9*9?9*9,27.00,21.50,72,95649,1224,1323,397,802,743,133,86984,53750,20186,2533,251,0.7,6,6,8333.0,752,9,999999999,78,0.2200,0,88,0.160,0.0,0.0
2016,7,21,11,21,?9?9?9?9E0?9?9?9*9*9?9?9?9?9?9?9*9?9*9*9?9*9,27.00,21.50,72,95649,1224,1323,397,804,744,133,86984,53750,20186,2533,251,0.7,6,6,8333.0,752,9,999999999,78,0.2200,0,88,0.160,0.0,0.0
2016,7,21,11,22,?9?9?9?9E0?9?9?9*9*9?9?9?9?9?9?9*9?9*9*9?9*9,27.00,21.50,72,95649,1224,1323,397,805,745,133,86984,53750,20186,2533,251,0.7,6,6,8333.0,752,9,999999999,78,0.2200,0,88,0.160,0.0,0.0
2016,7,21,11,23,?9?9?9?9E0?9?9?9*9*9?9?9?9?9?9?9*9?9*9*9?9*9,27.00,21.50,72,95649,1224,1323,397,807,745,133,86984,53750,20186,2533,251,0.7,6,6,8333.0,752,9,999999999,78,0.2200,0,88,0.160,0.0,0.0
2016,7,21,11,24,?9?9?9?9E0?9?9?9*9*9?9?9?9?9?9?9*9?9*9*9?9*9,27.00,21.50,72,95649,1224,1323,397,808,746,133,86984,53750,20186,2533,251,0.7,6,6,8333.0,752,9,999999999,78,0.2200,0,88,0.160,0.0,0.0
2016,7,21,11,25,?9?9?9?9E0?9?9?9*9*9?9?9?9?9?9?9*9?9*9*9?9*9,27.00,21.50,72,95649,1224,1323,397,809,746,133,86984,53750,20186,2533,251,0.7,6,6,8333.0,752,9,999999999,78,0.2200,0,88,0.160,0.0,0.0
2016,7,21,11,26,?9?9?9?9E0?9?9?9*9*9?9?9?9?9?9?9*9?9*9*9?9*9,27.00,21.50,72,95649,1224,1323,397,811,747,133,86984,53750,20186,2533,251,0.7,6,6,8333.0,752,9,999999999,78,0.2200,0,88,0.160,0.0,0.0
2016,7,21,11,27,?9?9?9?9E0?9?9?9*9*9?9?9?9?9?9?9*9?9*9*9?9*9,27.00,21.50,72,95649,1224,1323,397,812,747,133,86984,53750,20186,2533,251,0.7,6,6,8333.0,752,9,999999999,78,0.2200,0,88,0.160,0.0,0.0
2016,7,21,11,28,?9?9?9?9E0?9?9?9*9*9?9?9?9?9?9?9*9?9*9*9?9*9,27.00,21.50,72,95649,1224,1323,397,814,748,133,86984,53750,20186,2533,251,0.7,6,6,8333.0,752,9,999999999,78,0.2200,0,88,0.160,0.0,0.0
2016,7,21,11,29,?9?9?9?9E0?9?9?9*9*9?9?9?9?9?9?9*9?9*9*9?9*9,27.00,21.50,72,95649,1224,1323,397,815,748,133,86984,53750,20186,2533,251,0.7,6,6,8333.0,752,9,999999999,78,0.2200,0,88,0.160,0.0,0.0
2016,7,21,11,30,?9?9?9?9E0?9?9?9*9*9?9?9?9?9?9?9*9?9*9*9?9*9,27.00,21.50,72,95649,1224,1323,397,817,749,133,86984,53750,20186,2533,251,0.7,6,6,8333.0,752,9,999999999,78,0.2200,0,88,0.160,0.0,0.0
2016,7,21,11,31,?9?9?9?9E0?9?9?9*9*9?9?9?9?9?9?9*9?9*9*9?9*9,27.00,21.50,72,95649,1224,1323,397,818,750,133,86984,53750,20186,2533,251,0.8,6,6,8333.0,752,9,999999999,78,0.2200,0,88,0.160,0.0,0.0
2016,7,21,11,32,?9?9?9?9E0?9?9?9*9*9?9?9?9?9?9?9*9?9*9*9?9*9,27.00,21.50,72,95649,1224,1323,397,819,750,133,86984,53750,20186,2533,251,0.8,6,6,8333.0,752,9,999999999,78,0.2200,0,88,0.160,0.0,0.0
2016,7,21,11,33,?9?9?9?9E0?9?9?9*9*9?9?9?9?9?9?9*9?9*9*9?9*9,27.00,21.50,72,95649,1224,1323,397,821,751,133,86984,53750,20186,2533,251,0.8,6,6,8333.0,752,9,999999999,78,0.2200,0,88,0.160,0.0,0.0
2016,7,21,11,34,?9?9?9?9E0?9?9?9*9*9?9?9?9?9?9?9*9?9*9*9?9*9,27.00,21.50,72,95649,1224,1323,397,822,751,133,86984,53750,20186,2533,251,0.8,6,6,8333.0,752,9,999999999,78,0.2200,0,88,0.160,0.0,0.0
2016,7,21,11,35,?9?9?9?9E0?9?9?9*9*9?9?9?9?9?9?9*9?9*9*9?9*9,27.00,21.50,72,95649,1224,1323,397,824,752,133,86984,53750,20186,2533,251,0.8,6,6,8333.0,752,9,999999999,78,0.2200,0,88,0.160,0.0,0.0
2016,7,21,11,36,?9?9?9?9E0?9?9?9*9*9?9?9?9?9?9?9*9?9*9*9?9*9,27.00,21.50,72,95649,1224,1323,397,825,752,133,86984,53750,20186,2533,251,0.8,6,6,8333.0,752,9,999999999,78,0.2200,0,88,0.160,0.0,0.0
2016,7,21,11,37,?9?9?9?9E0?9?9?9*9*9?9?9?9?9?9?9*9?9*9*9?9*9,27.00,21.50,72,95649,1224,1323,397,827,753,133,86984,53750,20186,2533,251,0.8,6,6,8333.0,752,9,999999999,78,0.2200,0,88,0.160,0.0,0.0
2016,7,21,11,38,?9?9?9?9E0?9?9?9*9*9?9?9?9?9?9?9*9?9*9*9?9*9,27.00,21.50,72,95649,1224,1323,397,828,753,133,86984,53750,20186,2533,251,0.8,6,6,8333.0,752,9,999999999,78,0.2200,0,88,0.160,0.0,0.0
2016,7,21,11,39,?9?9?9?9E0?9?9?9*9*9?9?9?9?9?9?9*9?9*9*9?9*9,27.00,21.50,72,95649,1224,1323,397,829,754,133,86984,53750,20186,2533,251,0.8,6,6,8333.0,752,9,999999999,78,0.2200,0,88,0.160,0.0,0.0
2016,7,21,11,40,?9?9?9?9E0?9?9?9*9*9?9?9?9?9?9?9*9?9*9*9?9*9,27.00,21.50,72,95649,1224,1323,397,831,754,133,86984,53750,20186,2533,251,0.8,6,6,8333.0,752,9,999999999,78,0.2200,0,88,0.160,0.0,0.0
2016,7,21,11,41,?9?9?9?9E0?9?9?9*9*9?9?9?9?9?9?9*9?9*9*9?9*9,27.00,21.50,72,95649,1224,1323,397,832,755,133,86984,53750,20186,2533,251,0.8,6,6,8333.0,752,9,999999999,78,0.2200,0,88,0.160,0.0,0.0
2016,7,21,11,42,?9?9?9?9E0?9?9?9*9*9?9?9?9?9?9?9*9?9*9*9?9*9,27.00,21.50,72,95649,1224,1323,397,834,756,133,86984,53750,20186,2533,251,0.8,6,6,8333.0,752,9,999999999,78,0.2200,0,88,0.160,0.0,0.0
2016,7,21,11,43,?9?9?9?9E0?9?9?9*9*9?9?9?9?9?9?9*9?9*9*9?9*9,27.00,21.50,72,95649,1224,1323,397,835,756,133,86984,53750,20186,2533,251,0.8,6,6,8333.0,752,9,999999999,78,0.2200,0,88,0.160,0.0,0.0
2016,7,21,11,44,?9?9?9?9E0?9?9?9*9*9?9?9?9?9?9?9*9?9*9*9?9*9,27.00,21.50,72,95649,1224,1323,397,837,757,133,86984,53750,20186,2533,251,0.9,6,6,8333.0,752,9,999999999,78,0.2200,0,88,0.160,0.0,0.0
2016,7,21,11,45,?9?9?9?9E0?9?9?9*9*9?9?9?9?9?9?9*9?9*9*9?9*9,27.00,21.50,72,95649,1224,1323,397,838,757,133,86984,53750,20186,2533,251,0.9,6,6,8333.0,752,9,999999999,78,0.2200,0,88,0.160,0.0,0.0
2016,7,21,11,46,?9?9?9?9E0?9?9?9*9*9?9?9?9?9?9?9*9?9*9*9?9*9,27.00,21.50,72,95649,1224,1323,397,840,758,133,86984,53750,20186,2533,251,0.9,6,6,8333.0,752,9,999999999,78,0.2200,0,88,0.160,0.0,0.0
2016,7,21,11,47,?9?9?9?9E0?9?9?9*9*9?9?9?9?9?9?9*9?9*9*9?9*9,27.00,21.50,72,95649,1224,1323,397,841,758,133,86984,53750,20186,2533,251,0.9,6,6,8333.0,752,9,999999999,78,0.2200,0,88,0.160,0.0,0.0
2016,7,21,11,48,?9?9?9?9E0?9?9?9*9*9?9?9?9?9?9?9*9?9*9*9?9*9,27.00,21.50,72,95649,1224,1323,397,842,759,133,86984,53750,20186,2533,251,0.9,6,6,8333.0,752,9,999999999,78,0.2200,0,88,0.160,0.0,0.0
2016,7,21,11,49,?9?9?9?9E0?9?9?9*9*9?9?9?9?9?9?9*9?9*9*9?9*9,27.00,21.50,72,95649,1224,1323,397,844,759,133,86984,53750,20186,2533,251,0.9,6,6,8333.0,752,9,999999999,78,0.2200,0,88,0.160,0.0,0.0
2016,7,21,11,50,?9?9?9?9E0?9?9?9*9*9?9?9?9?9?9?9*9?9*9*9?9*9,27.00,21.50,72,95649,1224,1323,397,845,760,133,86984,53750,20186,2533,251,0.9,6,6,8333.0,752,9,999999999,78,0.2200,0,88,0.160,0.0,0.0
2016,7,21,11,51,?9?9?9?9E0?9?9?9*9*9?9?9?9?9?9?9*9?9*9*9?9*9,27.00,21.50,72,95649,1224,1323,397,847,760,133,86984,53750,20186,2533,251,0.9,6,6,8333.0,752,9,999999999,78,0.2200,0,88,0.160,0.0,0.0
2016,7,21,11,52,?9?9?9?9E0?9?9?9*9*9?9?9?9?9?9?9*9?9*9*9?9*9,27.00,21.50,72,95649,1224,1323,397,848,761,133,86984,53750,20186,2533,251,0.9,6,6,8333.0,752,9,999999999,78,0.2200,0,88,0.160,0.0,0.0
2016,7,21,11,53,?9?9?9?9E0?9?9?9*9*9?9?9?9?9?9?9*9?9*9*9?9*9,27.00,21.50,72,95649,1224,1323,397,850,762,133,86984,53750,20186,2533,251,0.9,6,6,8333.0,752,9,999999999,78,0.2200,0,88,0.160,0.0,0.0
2016,7,21,11,54,?9?9?9?9E0?9?9?9*9*9?9?9?9?9?9?9*9?9*9*9?9*9,27.00,21.50,72,95649,1224,1323,397,851,762,133,86984,53750,20186,2533,251,0.9,6,6,8333.0,752,9,999999999,78,0.2200,0,88,0.160,0.0,0.0
2016,7,21,11,55,?9?9?9?9E0?9?9?9*9*9?9?9?9?9?9?9*9?9*9*9?9*9,27.00,21.50,72,95649,1224,1323,397,852,763,133,86984,53750,20186,2533,251,0.9,6,6,8333.0,752,9,999999999,78,0.2200,0,88,0.160,0.0,0.0
2016,7,21,11,56,?9?9?9?9E0?9?9?9*9*9?9?9?9?9?9?9*9?9*9*9?9*9,27.00,21.50,72,95649,1224,1323,397,854,763,133,86984,53750,20186,2533,251,1.0,6,6,8333.0,752,9,999999999,78,0.2200,0,88,0.160,0.0,0.0
2016,7,21,11,57,?9?9?9?9E0?9?9?9*9*9?9?9?9?9?9?9*9?9*9*9?9*9,27.00,21.50,72,95649,1224,1323,397,855,764,133,86984,53750,20186,2533,251,1.0,6,6,8333.0,752,9,999999999,78,0.2200,0,88,0.160,0.0,0.0
2016,7,21,11,58,?9?9?9?9E0?9?9?9*9*9?9?9?9?9?9?9*9?9*9*9?9*9,27.00,21.50,72,95649,1224,1323,397,857,764,133,86984,53750,20186,2533,251,1.0,6,6,8333.0,752,9,999999999,78,0.2200,0,88,0.160,0.0,0.0
2016,7,21,11,59,?9?9?9?9E0?9?9?9*9*9?9?9?9?9?9?9*9?9*9*9?9*9,27.00,21.50,72,95649,1224,1323,397,858,765,133,86984,53750,20186,2533,251,1.0,6,6,8333.0,752,9,999999999,78,0.2200,0,88,0.160,0.0,0.0
2016,7,21,11,60,?9?9?9?9E0?9?9?9*9*9?9?9?9?9?9?9*9?9*9*9?9*9,27.00,21.50,72,95649,1224,1323,397,860,765,133,86984,53750,20186,2533,251,1.0,6,6,8333.0,752,9,999999999,78,0.2200,0,88,0.160,0.0,0.0
2016,7,21,12,1,?9?9?9?9E0?9?9?9?9?9?9?9?9?9?9?9*9?9*9*9?9*9,28.50,21.70,67,95647,1285,1323,406,861,766,134,90565,47215,21079,2800,320,1.0,6,6,8333.0,886,9,999999999,80,0.2200,0,88,0.160,0.0,0.0
2016,7,21,12,2,?9?9?9?9E0?9?9?9?9?9?9?9?9?9?9?9*9?9*9*9?9*9,28.50,21.70,67,95647,1285,1323,406,861,766,134,90565,47215,21079,2800,320,1.0,6,6,8333.0,886,9,999999999,80,0.2200,0,88,0.160,0.0,0.0
2016,7,21,12,3,?9?9?9?9E0?9?9?9?9?9?9?9?9?9?9?9*9?9*9*9?9*9,28.50,21.70,67,95647,1285,1323,406,861,765,134,90565,47215,21079,2800,320,1.0,6,6,8333.0,886,9,999999999,80,0.2200,0,88,0.160,0.0,0.0
2016,7,21,12,4,?9?9?9?9E0?9?9?9?9?9?9?9?9?9?9?9*9?9*9*9?9*9,28.50,21.70,67,95647,1285,1323,406,861,765,134,90565,47215,21079,2800,320,1.0,6,6,8333.0,886,9,999999999,80,0.2200,0,88,0.160,0.0,0.0
2016,7,21,12,5,?9?9?9?9E0?9?9?9?9?9?9?9?9?9?9?9*9?9*9*9?9*9,28.50,21.70,67,95647,1285,1323,406,861,765,134,90565,47215,21079,2800,320,1.0,6,6,8333.0,886,9,999999999,80,0.2200,0,88,0.160,0.0,0.0
2016,7,21,12,6,?9?9?9?9E0?9?9?9?9?9?9?9?9?9?9?9*9?9*9*9?9*9,28.50,21.70,67,95647,1285,1323,406,861,764,134,90565,47215,21079,2800,320,1.0,6,6,8333.0,886,9,999999999,80,0.2200,0,88,0.160,0.0,0.0
2016,7,21,12,7,?9?9?9?9E0?9?9?9?9?9?9?9?9?9?9?9*9?9*9*9?9*9,28.50,21.70,67,95647,1285,1323,406,861,764,134,90565,47215,21079,2800,320,1.0,6,6,8333.0,886,9,999999999,80,0.2200,0,88,0.160,0.0,0.0
2016,7,21,12,8,?9?9?9?9E0?9?9?9?9?9?9?9?9?9?9?9*9?9*9*9?9*9,28.50,21.70,67,95647,1285,1323,406,861,764,134,90565,47215,21079,2800,320,1.0,6,6,8333.0,886,9,999999999,80,0.2200,0,88,0.160,0.0,0.0
2016,7,21,12,9,?9?9?9?9E0?9?9?9?9?9?9?9?9?9?9?9*9?9*9*9?9*9,28.50,21.70,67,95647,1285,1323,406,862,763,134,90565,47215,21079,2800,320,1.0,6,6,8333.0,886,9,999999999,80,0.2200,0,88,0.160,0.0,0.0
2016,7,21,12,10,?9?9?9?9E0?9?9?9?9?9?9?9?9?9?9?9*9?9*9*9?9*9,28.50,21.70,67,95647,1285,1323,406,862,763,134,90565,47215,21079,2800,320,1.0,6,6,8333.0,886,9,999999999,80,0.2200,0,88,0.160,0.0,0.0
2016,7,21,12,11,?9?9?9?9E0?9?9?9?9?9?9?9?9?9?9?9*9?9*9*9?9*9,28.50,21.70,67,95647,1285,1323,406,862,763,134,90565,47215,21079,2800,320,1.0,6,6,8333.0,886,9,999999999,80,0.2200,0,88,0.160,0.0,0.0
2016,7,21,12,12,?9?9?9?9E0?9?9?9?9?9?9?9?9?9?9?9*9?9*9*9?9*9,28.50,21.70,67,95647,1285,1323,406,862,762,134,90565,47215,21079,2800,320,1.0,6,6,8333.0,886,9,999999999,80,0.2200,0,88,0.160,0.0,0.0
2016,7,21,12,13,?9?9?9?9E0?9?9?9?9?9?9?9?9?9?9?9*9?9*9*9?9*9,28.50,21.70,67,95647,1285,1323,406,862,762,134,90565,47215,21079,2800,320,1.0,6,6,8333.0,886,9,999999999,80,0.2200,0,88,0.160,0.0,0.0
2016,7,21,12,14,?9?9?9?9E0?9?9?9?9?9?9?9?9?9?9?9*9?9*9*9?9*9,28.50,21.70,67,95647,1285,1323,406,862,762,134,90565,47215,21079,2800,320,1.0,6,6,8333.0,886,9,999999999,80,0.2200,0,88,0.160,0.0,0.0
2016,7,21,12,15,?9?9?9?9E0?9?9?9?9?9?9?9?9?9?9?9*9?9*9*9?9*9,28.50,21.70,67,95647,1285,1323,406,862,761,134,90565,47215,21079,2800,320,1.0,6,6,8333.0,886,9,999999999,80,0.2200,0,88,0.160,0.0,0.0
2016,7,21,12,16,?9?9?9?9E0?9?9?9?9?9?9?9?9?9?9?9*9?9*9*9?9*9,28.50,21.70,67,95647,1285,1323,406,862,761,134,90565,47215,21079,2800,320,1.0,6,6,8333.0,886,9,999999999,80,0.2200,0,88,0.160,0.0,0.0
2016,7,21,12,17,?9?9?9?9E0?9?9?9?9?9?9?9?9?9?9?9*9?9*9*9?9*9,28.50,21.70,67,95647,1285,1323,406,862,761,134,90565,47215,21079,2800,320,1.0,6,6,8333.0,886,9,999999999,80,0.2200,0,88,0.160,0.0,0.0
2016,7,21,12,18,?9?9?9?9E0?9?9?9?9?9?9?9?9?9?9?9*9?9*9*9?9*9,28.50,21.70,67,95647,1285,1323,406,862,760,134,90565,47215,21079,2800,320,1.0,6,6,8333.0,886,9,999999999,80,0.2200,0,88,0.160,0.0,0.0
2016,7,21,12,19,?9?9?9?9E0?9?9?9?9?9?9?9?9?9?9?9*9?9*9*9?9*9,28.50,21.70,67,95647,1285,1323,406,862,760,134,90565,47215,21079,2800,320,1.0,6,6,8333.0,886,9,999999999,80,0.2200,0,88,0.160,0.0,0.0
2016,7,21,12,20,?9?9?9?9E0?9?9?9?9?9?9?9?9?9?9?9*9?9*9*9?9*9,28.50,21.70,67,95647,1285,1323,406,862,760,134,90565,47215,21079,2800,320,1.0,6,6,8333.0,886,9,999999999,80,0.2200,0,88,0.160,0.0,0.0
2016,7,21,12,21,?9?9?9?9E0?9?9?9?9?9?9?9?9?9?9?9*9?9*9*9?9*9,28.50,21.70,67,95647,1285,1323,406,862,759,134,90565,47215,21079,2800,320,1.0,6,6,8333.0,886,9,999999999,80,0.2200,0,88,0.160,0.0,0.0
2016,7,21,12,22,?9?9?9?9E0?9?9?9?9?9?9?9?9?9?9?9*9?9*9*9?9*9,28.50,21.70,67,95647,1285,1323,406,862,759,134,90565,47215,21079,2800,320,1.0,6,6,8333.0,886,9,999999999,80,0.2200,0,88,0.160,0.0,0.0
2016,7,21,12,23,?9?9?9?9E0?9?9?9?9?9?9?9?9?9?9?9*9?9*9*9?9*9,28.50,21.70,67,95647,1285,1323,406,862,759,134,90565,47215,21079,2800,320,1.0,6,6,8333.0,886,9,999999999,80,0.2200,0,88,0.160,0.0,0.0
2016,7,21,12,24,?9?9?9?9E0?9?9?9?9?9?9?9?9?9?9?9*9?9*9*9?9*9,28.50,21.70,67,95647,1285,1323,406,863,758,134,90565,47215,21079,2800,320,1.0,6,6,8333.0,886,9,999999999,80,0.2200,0,88,0.160,0.0,0.0
2016,7,21,12,25,?9?9?9?9E0?9?9?9?9?9?9?9?9?9?9?9*9?9*9*9?9*9,28.50,21.70,67,95647,1285,1323,406,863,758,134,90565,47215,21079,2800,320,1.0,6,6,8333.0,886,9,999999999,80,0.2200,0,88,0.160,0.0,0.0
2016,7,21,12,26,?9?9?9?9E0?9?9?9?9?9?9?9?9?9?9?9*9?9*9*9?9*9,28.50,21.70,67,95647,1285,1323,406,863,758,134,90565,47215,21079,2800,320,1.0,6,6,8333.0,886,9,999999999,80,0.2200,0,88,0.160,0.0,0.0
2016,7,21,12,27,?9?9?9?9E0?9?9?9?9?9?9?9?9?9?9?9*9?9*9*9?9*9,28.50,21.70,67,95647,1285,1323,406,863,757,134,90565,47215,21079,2800,320,1.0,6,6,8333.0,886,9,999999999,80,0.2200,0,88,0.160,0.0,0.0
2016,7,21,12,28,?9?9?9?9E0?9?9?9?9?9?9?9?9?9?9?9*9?9*9*9?9*9,28.50,21.70,67,95647,1285,1323,406,863,757,134,90565,47215,21079,2800,320,1.0,6,6,8333.0,886,9,999999999,80,0.2200,0,88,0.160,0.0,0.0
2016,7,21,12,29,?9?9?9?9E0?9?9?9?9?9?9?9?9?9?9?9*9?9*9*9?9*9,28.50,21.70,67,95647,1285,1323,406,863,757,134,90565,47215,21079,2800,320,1.0,6,6,8333.0,886,9,999999999,80,0.2200,0,88,0.160,0.0,0.0
2016,7,21,12,30,?9?9?9?9E0?9?9?9?9?9?9?9?9?9?9?9*9?9*9*9?9*9,28.50,21.70,67,95647,1285,1323,406,863,756,134,90565,47215,21079,2800,320,1.0,6,6,8333.0,886,9,999999999,80,0.2200,0,88,0.160,0.0,0.0
2016,7,21,12,31,?9?9?9?9E0?9?9?9?9?9?9?9?9?9?9?9*9?9*9*9?9*9,28.50,21.70,67,95647,1285,1323,406,863,756,134,90565,47215,21079,2800,320,1.0,6,6,8333.0,886,9,999999999,80,0.2200,0,88,0.160,0.0,0.0
2016,7,21,12,32,?9?9?9?9E0?9?9?9?9?9?9?9?9?9?9?9*9?9*9*9?9*9,28.50,21.70,67,95647,1285,1323,406,863,756,134,90565,47215,21079,2800,320,1.0,6,6,8333.0,886,9,999999999,80,0.2200,0,88,0.160,0.0,0.0
2016,7,21,12,33,?9?9?9?9E0?9?9?9?9?9?9?9?9?9?9?9*9?9*9*9?9*9,28.50,21.70,67,95647,1285,1323,406,863,755,134,90565,47215,21079,2800,320,1.0,6,6,8333.0,886,9,999999999,80,0.2200,0,88,0.160,0.0,0.0
2016,7,21,12,34,?9?9?9?9E0?9?9?9?9?9?9?9?9?9?9?9*9?9*9*9?9*9,28.50,21.70,67,95647,1285,1323,406,863,755,134,90565,47215,21079,2800,320,1.0,6,6,8333.0,886,9,999999999,80,0.2200,0,88,0.160,0.0,0.0
2016,7,21,12,35,?9?9?9?9E0?9?9?9?9?9?9?9?9?9?9?9*9?9*9*9?9*9,28.50,21.70,67,95647,1285,1323,406,863,755,134,90565,47215,21079,2800,320,1.0,6,6,8333.0,886,9,999999999,80,0.2200,0,88,0.160,0.0,0.0
2016,7,21,12,36,?9?9?9?9E0?9?9?9?9?9?9?9?9?9?9?9*9?9*9*9?9*9,28.50,21.70,67,95647,1285,1323,406,863,754,134,90565,47215,21079,2800,320,1.0,6,6,8333.0,886,9,999999999,80,0.2200,0,88,0.160,0.0,0.0
2016,7,21,12,37,?9?9?9?9E0?9?9?9?9?9?9?9?9?9?9?9*9?9*9*9?9*9,28.50,21.70,67,95647,1285,1323,406,863,754,134,90565,47215,21079,2800,320,1.0,6,6,8333.0,886,9,999999999,80,0.2200,0,88,0.160,0.0,0.0
2016,7,21,12,38,?9?9?9?9E0?9?9?9?9?9?9?9?9?9?9?9*9?9*9*9?9*9,28.50,21.70,67,95647,1285,1323,406,863,754,134,90565,47215,21079,2800,320,1.0,6,6,8333.0,886,9,999999999,80,0.2200,0,88,0.160,0.0,0.0
2016,7,21,12,39,?9?9?9?9E0?9?9?9?9?9?9?9?9?9?9?9*9?9*9*9?9*9,28.50,21.70,67,95647,1285,1323,406,864,753,134,90565,47215,21079,2800,320,1.0,6,6,8333.0,886,9,999999999,80,0.2200,0,88,0.160,0.0,0.0
2016,7,21,12,40,?9?9?9?9E0?9?9?9?9?9?9?9?9?9?9?9*9?9*9*9?9*9,28.50,21.70,67,95647,1285,1323,406,864,753,134,90565,47215,21079,2800,320,1.0,6,6,8333.0,886,9,999999999,80,0.2200,0,88,0.160,0.0,0.0
2016,7,21,12,41,?9?9?9?9E0?9?9?9?9?9?9?9?9?9?9?9*9?9*9*9?9*9,28.50,21.70,67,95647,1285,1323,406,864,753,134,90565,47215,21079,2800,320,1.0,6,6,8333.0,886,9,999999999,80,0.2200,0,88,0.160,0.0,0.0
2016,7,21,12,42,?9?9?9?9E0?9?9?9?9?9?9?9?9?9?9?9*9?9*9*9?9*9,28.50,21.70,67,95647,1285,1323,406,864,752,134,90565,47215,21079,2800,320,1.0,6,6,8333.0,886,9,999999999,80,0.2200,0,88,0.160,0.0,0.0
2016,7,21,12,43,?9?9?9?9E0?9?9?9?9?9?9?9?9?9?9?9*9?9*9*9?9*9,28.50,21.70,67,95647,1285,1323,406,864,752,134,90565,47215,21079,2800,320,1.0,6,6,8333.0,886,9,999999999,80,0.2200,0,88,0.160,0.0,0.0
2016,7,21,12,44,?9?9?9?9E0?9?9?9?9?9?9?9?9?9?9?9*9?9*9*9?9*9,28.50,21.70,67,95647,1285,1323,406,864,752,134,90565,47215,21079,2800,320,1.0,6,6,8333.0,886,9,999999999,80,0.2200,0,88,0.160,0.0,0.0
2016,7,21,12,45,?9?9?9?9E0?9?9?9?9?9?9?9?9?9?9?9*9?9*9*9?9*9,28.50,21.70,67,95647,1285,1323,406,864,751,134,90565,47215,21079,2800,320,1.0,6,6,8333.0,886,9,999999999,80,0.2200,0,88,0.160,0.0,0.0
2016,7,21,12,46,?9?9?9?9E0?9?9?9?9?9?9?9?9?9?9?9*9?9*9*9?9*9,28.50,21.70,67,95647,1285,1323,406,864,751,134,90565,47215,21079,2800,320,1.0,6,6,8333.0,886,9,999999999,80,0.2200,0,88,0.160,0.0,0.0
2016,7,21,12,47,?9?9?9?9E0?9?9?9?9?9?9?9?9?9?9?9*9?9*9*9?9*9,28.50,21.70,67,95647,1285,1323,406,864,751,134,90565,47215,21079,2800,320,1.0,6,6,8333.0,886,9,999999999,80,0.2200,0,88,0.160,0.0,0.0
2016,7,21,12,48,?9?9?9?9E0?9?9?9?9?9?9?9?9?9?9?9*9?9*9*9?9*9,28.50,21.70,67,95647,1285,1323,406,864,750,134,90565,47215,21079,2800,320,1.0,6,6,8333.0,886,9,999999999,80,0.2200,0,88,0.160,0.0,0.0
2016,7,21,12,49,?9?9?9?9E0?9?9?9?9?9?9?9?9?9?9?9*9?9*9*9?9*9,28.50,21.70,67,95647,1285,1323,406,864,750,134,90565,47215,21079,2800,320,1.0,6,6,8333.0,886,9,999999999,80,0.2200,0,88,0.160,0.0,0.0
2016,7,21,12,50,?9?9?9?9E0?9?9?9?9?9?9?9?9?9?9?9*9?9*9*9?9*9,28.50,21.70,67,95647,1285,1323,406,864,750,134,90565,47215,21079,2800,320,1.0,6,6,8333.0,886,9,999999999,80,0.2200,0,88,0.160,0.0,0.0
2016,7,21,12,51,?9?9?9?9E0?9?9?9?9?9?9?9?9?9?9?9*9?9*9*9?9*9,28.50,21.70,67,95647,1285,1323,406,864,749,134,90565,47215,21079,2800,320,1.0,6,6,8333.0,886,9,999999999,80,0.2200,0,88,0.160,0.0,0.0
2016,7,21,12,52,?9?9?9?9E0?9?9?9?9?9?9?9?9?9?9?9*9?9*9*9?9*9,28.50,21.70,67,95647,1285,1323,406,864,749,134,90565,47215,21079,2800,320,1.0,6,6,8333.0,886,9,999999999,80,0.2200,0,88,0.160,0.0,0.0
2016,7,21,12,53,?9?9?9?9E0?9?9?9?9?9?9?9?9?9?9?9*9?9*9*9?9*9,28.50,21.70,67,95647,1285,1323,406,864,749,134,90565,47215,21079,2800,320,1.0,6,6,8333.0,886,9,999999999,80,0.2200,0,88,0.160,0.0,0.0
2016,7,21,12,54,?9?9?9?9E0?9?9?9?9?9?9?9?9?9?9?9*9?9*9*9?9*9,28.50,21.70,67,95647,1285,1323,406,865,748,134,90565,47215,21079,2800,320,1.0,6,6,8333.0,886,9,999999999,80,0.2200,0,88,0.160,0.0,0.0
2016,7,21,12,55,?9?9?9?9E0?9?9?9?9?9?9?9?9?9?9?9*9?9*9*9?9*9,28.50,21.70,67,95647,1285,1323,406,865,748,134,90565,47215,21079,2800,320,1.0,6,6,8333.0,886,9,999999999,80,0.2200,0,88,0.160,0.0,0.0
2016,7,21,12,56,?9?9?9?9E0?9?9?9?9?9?9?9?9?9?9?9*9?9*9*9?9*9,28.50,21.70,67,95647,1285,1323,406,865,748,134,90565,47215,21079,2800,320,1.0,6,6,8333.0,886,9,999999999,80,0.2200,0,88,0.160,0.0,0.0
2016,7,21,12,57,?9?9?9?9E0?9?9?9?9?9?9?9?9?9?9?9*9?9*9*9?9*9,28.50,21.70,67,95647,1285,1323,406,865,747,134,90565,47215,21079,2800,320,1.0,6,6,8333.0,886,9,999999999,80,0.2200,0,88,0.160,0.0,0.0
2016,7,21,12,58,?9?9?9?9E0?9?9?9?9?9?9?9?9?9?9?9*9?9*9*9?9*9,28.50,21.70,67,95647,1285,1323,406,865,747,134,90565,47215,21079,2800,320,1.0,6,6,8333.0,886,9,999999999,80,0.2200,0,88,0.160,0.0,0.0
2016,7,21,12,59,?9?9?9?9E0?9?9?9?9?9?9?9?9?9?9?9*9?9*9*9?9*9,28.50,21.70,67,95647,1285,1323,406,865,747,134,90565,47215,21079,2800,320,1.0,6,6,8333.0,886,9,999999999,80,0.2200,0,88,0.160,0.0,0.0
2016,7,21,12,60,?9?9?9?9E0?9?9?9?9?9?9?9?9?9?9?9*9?9*9*9?9*9,28.50,21.70,67,95647,1285,1323,406,865,746,134,90565,47215,21079,2800,320,1.0,6,6,8333.0,886,9,999999999,80,0.2200,0,88,0.160,0.0,0.0
2016,7,21,13,1,?9?9?9?9E0?9?9?9*9*9?9?9?9?9?9?9*9?9*9*9?9*9,28.80,21.90,66,95580,1262,1323,413,865,746,146,91799,58143,22877,3000,258,1.0,5,5,8333.0,1034,9,999999999,81,0.2200,0,88,0.160,0.1,0.0
2016,7,21,13,2,?9?9?9?9E0?9?9?9*9*9?9?9?9?9?9?9*9?9*9*9?9*9,28.80,21.90,66,95580,1262,1323,413,865,746,146,91799,58143,22877,3000,258,1.0,5,5,8333.0,1034,9,999999999,81,0.2200,0,88,0.160,0.1,0.0
2016,7,21,13,3,?9?9?9?9E0?9?9?9*9*9?9?9?9?9?9?9*9?9*9*9?9*9,28.80,21.90,66,95580,1262,1323,413,864,746,146,91799,58143,22877,3000,258,1.0,5,5,8333.0,1034,9,999999999,81,0.2200,0,88,0.160,0.1,0.0
2016,7,21,13,4,?9?9?9?9E0?9?9?9*9*9?9?9?9?9?9?9*9?9*9*9?9*9,28.80,21.90,66,95580,1262,1323,413,864,746,146,91799,58143,22877,3000,258,1.0,5,5,8333.0,1034,9,999999999,81,0.2200,0,88,0.160,0.1,0.0
2016,7,21,13,5,?9?9?9?9E0?9?9?9*9*9?9?9?9?9?9?9*9?9*9*9?9*9,28.80,21.90,66,95580,1262,1323,413,863,746,146,91799,58143,22877,3000,258,1.0,5,5,8333.0,1034,9,999999999,81,0.2200,0,88,0.160,0.1,0.0
2016,7,21,13,6,?9?9?9?9E0?9?9?9*9*9?9?9?9?9?9?9*9?9*9*9?9*9,28.80,21.90,66,95580,1262,1323,413,863,746,146,91799,58143,22877,3000,258,1.0,5,5,8333.0,1034,9,999999999,81,0.2200,0,88,0.160,0.1,0.0
2016,7,21,13,7,?9?9?9?9E0?9?9?9*9*9?9?9?9?9?9?9*9?9*9*9?9*9,28.80,21.90,66,95580,1262,1323,413,862,746,146,91799,58143,22877,3000,258,1.0,5,5,8333.0,1034,9,999999999,81,0.2200,0,88,0.160,0.1,0.0
2016,7,21,13,8,?9?9?9?9E0?9?9?9*9*9?9?9?9?9?9?9*9?9*9*9?9*9,28.80,21.90,66,95580,1262,1323,413,862,746,146,91799,58143,22877,3000,258,1.0,5,5,8333.0,1034,9,999999999,81,0.2200,0,88,0.160,0.1,0.0
2016,7,21,13,9,?9?9?9?9E0?9?9?9*9*9?9?9?9?9?9?9*9?9*9*9?9*9,28.80,21.90,66,95580,1262,1323,413,861,746,146,91799,58143,22877,3000,258,1.0,5,5,8333.0,1034,9,999999999,81,0.2200,0,88,0.160,0.1,0.0
2016,7,21,13,10,?9?9?9?9E0?9?9?9*9*9?9?9?9?9?9?9*9?9*9*9?9*9,28.80,21.90,66,95580,1262,1323,413,861,746,146,91799,58143,22877,3000,258,1.0,5,5,8333.0,1034,9,999999999,81,0.2200,0,88,0.160,0.1,0.0
2016,7,21,13,11,?9?9?9?9E0?9?9?9*9*9?9?9?9?9?9?9*9?9*9*9?9*9,28.80,21.90,66,95580,1262,1323,413,860,746,146,91799,58143,22877,3000,258,1.0,5,5,8333.0,1034,9,999999999,81,0.2200,0,88,0.160,0.1,0.0
2016,7,21,13,12,?9?9?9?9E0?9?9?9*9*9?9?9?9?9?9?9*9?9*9*9?9*9,28.80,21.90,66,95580,1262,1323,413,860,746,146,91799,58143,22877,3000,258,1.0,5,5,8333.0,1034,9,999999999,81,0.2200,0,88,0.160,0.1,0.0
2016,7,21,13,13,?9?9?9?9E0?9?9?9*9*9?9?9?9?9?9?9*9?9*9*9?9*9,28.80,21.90,66,95580,1262,1323,413,859,746,146,91799,58143,22877,3000,258,1.0,5,5,8333.0,1034,9,999999999,81,0.2200,0,88,0.160,0.1,0.0
2016,7,21,13,14,?9?9?9?9E0?9?9?9*9*9?9?9?9?9?9?9*9?9*9*9?9*9,28.80,21.90,66,95580,1262,1323,413,859,746,146,91799,58143,22877,3000,258,1.0,5,5,8333.0,1034,9,999999999,81,0.2200,0,88,0.160,0.1,0.0
2016,7,21,13,15,?9?9?9?9E0?9?9?9*9*9?9?9?9?9?9?9*9?9*9*9?9*9,28.80,21.90,66,95580,1262,1323,413,858,746,146,91799,58143,22877,3000,258,1.0,5,5,8333.0,1034,9,999999999,81,0.2200,0,88,0.160,0.1,0.0
2016,7,21,13,16,?9?9?9?9E0?9?9?9*9*9?9?9?9?9?9?9*9?9*9*9?9*9,28.80,21.90,66,95580,1262,1323,413,858,746,146,91799,58143,22877,3000,258,1.0,5,5,8333.0,1034,9,999999999,81,0.2200,0,88,0.160,0.1,0.0
2016,7,21,13,17,?9?9?9?9E0?9?9?9*9*9?9?9?9?9?9?9*9?9*9*9?9*9,28.80,21.90,66,95580,1262,1323,413,857,746,146,91799,58143,22877,3000,258,1.0,5,5,8333.0,1034,9,999999999,81,0.2200,0,88,0.160,0.1,0.0
2016,7,21,13,18,?9?9?9?9E0?9?9?9*9*9?9?9?9?9?9?9*9?9*9*9?9*9,28.80,21.90,66,95580,1262,1323,413,857,746,146,91799,58143,22877,3000,258,1.0,5,5,8333.0,1034,9,999999999,81,0.2200,0,88,0.160,0.1,0.0
2016,7,21,13,19,?9?9?9?9E0?9?9?9*9*9?9?9?9?9?9?9*9?9*9*9?9*9,28.80,21.90,66,95580,1262,1323,413,856,746,146,91799,58143,22877,3000,258,1.0,5,5,8333.0,1034,9,999999999,81,0.2200,0,88,0.160,0.1,0.0
2016,7,21,13,20,?9?9?9?9E0?9?9?9*9*9?9?9?9?9?9?9*9?9*9*9?9*9,28.80,21.90,66,95580,1262,1323,413,856,746,146,91799,58143,22877,3000,258,1.0,5,5,8333.0,1034,9,999999999,81,0.2200,0,88,0.160,0.1,0.0
2016,7,21,13,21,?9?9?9?9E0?9?9?9*9*9?9?9?9?9?9?9*9?9*9*9?9*9,28.80,21.90,66,95580,1262,1323,413,855,746,146,91799,58143,22877,3000,258,1.0,5,5,8333.0,1034,9,999999999,81,0.2200,0,88,0.160,0.1,0.0
2016,7,21,13,22,?9?9?9?9E0?9?9?9*9*9?9?9?9?9?9?9*9?9*9*9?9*9,28.80,21.90,66,95580,1262,1323,413,855,746,146,91799,58143,22877,3000,258,1.0,5,5,8333.0,1034,9,999999999,81,0.2200,0,88,0.160,0.1,0.0
2016,7,21,13,23,?9?9?9?9E0?9?9?9*9*9?9?9?9?9?9?9*9?9*9*9?9*9,28.80,21.90,66,95580,1262,1323,413,854,746,146,91799,58143,22877,3000,258,1.0,5,5,8333.0,1034,9,999999999,81,0.2200,0,88,0.160,0.1,0.0
2016,7,21,13,24,?9?9?9?9E0?9?9?9*9*9?9?9?9?9?9?9*9?9*9*9?9*9,28.80,21.90,66,95580,1262,1323,413,854,746,146,91799,58143,22877,3000,258,1.0,5,5,8333.0,1034,9,999999999,81,0.2200,0,88,0.160,0.1,0.0
2016,7,21,13,25,?9?9?9?9E0?9?9?9*9*9?9?9?9?9?9?9*9?9*9*9?9*9,28.80,21.90,66,95580,1262,1323,413,853,746,146,91799,58143,22877,3000,258,1.0,5,5,8333.0,1034,9,999999999,81,0.2200,0,88,0.160,0.1,0.0
2016,7,21,13,26,?9?9?9?9E0?9?9?9*9*9?9?9?9?9?9?9*9?9*9*9?9*9,28.80,21.90,66,95580,1262,1323,413,853,746,146,91799,58143,22877,3000,258,1.0,5,5,8333.0,1034,9,999999999,81,0.2200,0,88,0.160,0.1,0.0
2016,7,21,13,27,?9?9?9?9E0?9?9?9*9*9?9?9?9?9?9?9*9?9*9*9?9*9,28.80,21.90,66,95580,1262,1323,413,852,746,146,91799,58143,22877,3000,258,1.0,5,5,8333.0,1034,9,999999999,81,0.2200,0,88,0.160,0.1,0.0
2016,7,21,13,28,?9?9?9?9E0?9?9?9*9*9?9?9?9?9?9?9*9?9*9*9?9*9,28.80,21.90,66,95580,1262,1323,413,852,746,146,91799,58143,22877,3000,258,1.0,5,5,8333.0,1034,9,999999999,81,0.2200,0,88,0.160,0.1,0.0
2016,7,21,13,29,?9?9?9?9E0?9?9?9*9*9?9?9?9?9?9?9*9?9*9*9?9*9,28.80,21.90,66,95580,1262,1323,413,851,746,146,91799,58143,22877,3000,258,1.0,5,5,8333.0,1034,9,999999999,81,0.2200,0,88,0.160,0.1,0.0
2016,7,21,13,30,?9?9?9?9E0?9?9?9*9*9?9?9?9?9?9?9*9?9*9*9?9*9,28.80,21.90,66,95580,1262,1323,413,851,746,146,91799,58143,22877,3000,258,1.0,5,5,8333.0,1034,9,999999999,81,0.2200,0,88,0.160,0.1,0.0
2016,7,21,13,31,?9?9?9?9E0?9?9?9*9*9?9?9?9?9?9?9*9?9*9*9?9*9,28.80,21.90,66,95580,1262,1323,413,850,746,146,91799,58143,22877,3000,258,1.0,5,5,8333.0,1034,9,999999999,81,0.2200,0,88,0.160,0.1,0.0
2016,7,21,13,32,?9?9?9?9E0?9?9?9*9*9?9?9?9?9?9?9*9?9*9*9?9*9,28.80,21.90,66,95580,1262,1323,413,850,745,146,91799,58143,22877,3000,258,1.0,5,5,8333.0,1034,9,999999999,81,0.2200,0,88,0.160,0.1,0.0
2016,7,21,13,33,?9?9?9?9E0?9?9?9*9*9?9?9?9?9?9?9*9?9*9*9?9*9,28.80,21.90,66,95580,1262,1323,413,850,745,146,91799,58143,22877,3000,258,1.0,5,5,8333.0,1034,9,999999999,81,0.2200,0,88,0.160,0.1,0.0
2016,7,21,13,34,?9?9?9?9E0?9?9?9*9*9?9?9?9?9?9?9*9?9*9*9?9*9,28.80,21.90,66,95580,1262,1323,413,849,745,146,91799,58143,22877,3000,258,1.0,5,5,8333.0,1034,9,999999999,81,0.2200,0,88,0.160,0.1,0.0
2016,7,21,13,35,?9?9?9?9E0?9?9?9*9*9?9?9?9?9?9?9*9?9*9*9?9*9,28.80,21.90,66,95580,1262,1323,413,849,745,146,91799,58143,22877,3000,258,1.0,5,5,8333.0,1034,9,999999999,81,0.2200,0,88,0.160,0.1,0.0
2016,7,21,13,36,?9?9?9?9E0?9?9?9*9*9?9?9?9?9?9?9*9?9*9*9?9*9,28.80,21.90,66,95580,1262,1323,413,848,745,146,91799,58143,22877,3000,258,1.0,5,5,8333.0,1034,9,999999999,81,0.2200,0,88,0.160,0.1,0.0
2016,7,21,13,37,?9?9?9?9E0?9?9?9*9*9?9?9?9?9?9?9*9?9*9*9?9*9,28.80,21.90,66,95580,1262,1323,413,848,745,146,91799,58143,22877,3000,258,1.0,5,5,8333.0,1034,9,999999999,81,0.2200,0,88,0.160,0.1,0.0
2016,7,21,13,38,?9?9?9?9E0?9?9?9*9*9?9?9?9?9?9?9*9?9*9*9?9*9,28.80,21.90,66,95580,1262,1323,413,847,745,146,91799,58143,22877,3000,258,1.0,5,5,8333.0,1034,9,999999999,81,0.2200,0,88,0.160,0.1,0.0
2016,7,21,13,39,?9?9?9?9E0?9?9?9*9*9?9?9?9?9?9?9*9?9*9*9?9*9,28.80,21.90,66,95580,1262,1323,413,847,745,146,91799,58143,22877,3000,258,1.0,5,5,8333.0,1034,9,999999999,81,0.2200,0,88,0.160,0.1,0.0
2016,7,21,13,40,?9?9?9?9E0?9?9?9*9*9?9?9?9?9?9?9*9?9*9*9?9*9,28.80,21.90,66,95580,1262,1323,413,846,745,146,91799,58143,22877,3000,258,1.0,5,5,8333.0,1034,9,999999999,81,0.2200,0,88,0.160,0.1,0.0
2016,7,21,13,41,?9?9?9?9E0?9?9?9*9*9?9?9?9?9?9?9*9?9*9*9?9*9,28.80,21.90,66,95580,1262,1323,413,846,745,146,91799,58143,22877,3000,258,1.0,5,5,8333.0,1034,9,999999999,81,0.2200,0,88,0.160,0.1,0.0
2016,7,21,13,42,?9?9?9?9E0?9?9?9*9*9?9?9?9?9?9?9*9?9*9*9?9*9,28.80,21.90,66,95580,1262,1323,413,845,745,146,91799,58143,22877,3000,258,1.0,5,5,8333.0,1034,9,999999999,81,0.2200,0,88,0.160,0.1,0.0
2016,7,21,13,43,?9?9?9?9E0?9?9?9*9*9?9?9?9?9?9?9*9?9*9*9?9*9,28.80,21.90,66,95580,1262,1323,413,845,745,146,91799,58143,22877,3000,258,1.0,5,5,8333.0,1034,9,999999999,81,0.2200,0,88,0.160,0.1,0.0
2016,7,21,13,44,?9?9?9?9E0?9?9?9*9*9?9?9?9?9?9?9*9?9*9*9?9*9,28.80,21.90,66,95580,1262,1323,413,844,745,146,91799,58143,22877,3000,258,1.0,5,5,8333.0,1034,9,999999999,81,0.2200,0,88,0.160,0.1,0.0
2016,7,21,13,45,?9?9?9?9E0?9?9?9*9*9?9?9?9?9?9?9*9?9*9*9?9*9,28.80,21.90,66,95580,1262,1323,413,844,745,146,91799,58143,22877,3000,258,1.0,5,5,8333.0,1034,9,999999999,81,0.2200,0,88,0.160,0.1,0.0
2016,7,21,13,46,?9?9?9?9E0?9?9?9*9*9?9?9?9?9?9?9*9?9*9*9?9*9,28.80,21.90,66,95580,1262,1323,413,843,745,146,91799,58143,22877,3000,258,1.0,5,5,8333.0,1034,9,999999999,81,0.2200,0,88,0.160,0.1,0.0
2016,7,21,13,47,?9?9?9?9E0?9?9?9*9*9?9?9?9?9?9?9*9?9*9*9?9*9,28.80,21.90,66,95580,1262,1323,413,843,745,146,91799,58143,22877,3000,258,1.0,5,5,8333.0,1034,9,999999999,81,0.2200,0,88,0.160,0.1,0.0
2016,7,21,13,48,?9?9?9?9E0?9?9?9*9*9?9?9?9?9?9?9*9?9*9*9?9*9,28.80,21.90,66,95580,1262,1323,413,842,745,146,91799,58143,22877,3000,258,1.0,5,5,8333.0,1034,9,999999999,81,0.2200,0,88,0.160,0.1,0.0
2016,7,21,13,49,?9?9?9?9E0?9?9?9*9*9?9?9?9?9?9?9*9?9*9*9?9*9,28.80,21.90,66,95580,1262,1323,413,842,745,146,91799,58143,22877,3000,258,1.0,5,5,8333.0,1034,9,999999999,81,0.2200,0,88,0.160,0.1,0.0
2016,7,21,13,50,?9?9?9?9E0?9?9?9*9*9?9?9?9?9?9?9*9?9*9*9?9*9,28.80,21.90,66,95580,1262,1323,413,841,745,146,91799,58143,22877,3000,258,1.0,5,5,8333.0,1034,9,999999999,81,0.2200,0,88,0.160,0.1,0.0
2016,7,21,13,51,?9?9?9?9E0?9?9?9*9*9?9?9?9?9?9?9*9?9*9*9?9*9,28.80,21.90,66,95580,1262,1323,413,841,745,146,91799,58143,22877,3000,258,1.0,5,5,8333.0,1034,9,999999999,81,0.2200,0,88,0.160,0.1,0.0
2016,7,21,13,52,?9?9?9?9E0?9?9?9*9*9?9?9?9?9?9?9*9?9*9*9?9*9,28.80,21.90,66,95580,1262,1323,413,840,745,146,91799,58143,22877,3000,258,1.0,5,5,8333.0,1034,9,999999999,81,0.2200,0,88,0.160,0.1,0.0
2016,7,21,13,53,?9?9?9?9E0?9?9?9*9*9?9?9?9?9?9?9*9?9*9*9?9*9,28.80,21.90,66,95580,1262,1323,413,840,745,146,91799,58143,22877,3000,258,1.0,5,5,8333.0,1034,9,999999999,81,0.2200,0,88,0.160,0.1,0.0
2016,7,21,13,54,?9?9?9?9E0?9?9?9*9*9?9?9?9?9?9?9*9?9*9*9?9*9,28.80,21.90,66,95580,1262,1323,413,839,745,146,91799,58143,22877,3000,258,1.0,5,5,8333.0,1034,9,999999999,81,0.2200,0,88,0.160,0.1,0.0
2016,7,21,13,55,?9?9?9?9E0?9?9?9*9*9?9?9?9?9?9?9*9?9*9*9?9*9,28.80,21.90,66,95580,1262,1323,413,839,745,146,91799,58143,22877,3000,258,1.0,5,5,8333.0,1034,9,999999999,81,0.2200,0,88,0.160,0.1,0.0
2016,7,21,13,56,?9?9?9?9E0?9?9?9*9*9?9?9?9?9?9?9*9?9*9*9?9*9,28.80,21.90,66,95580,1262,1323,413,838,745,146,91799,58143,22877,3000,258,1.0,5,5,8333.0,1034,9,999999999,81,0.2200,0,88,0.160,0.1,0.0
2016,7,21,13,57,?9?9?9?9E0?9?9?9*9*9?9?9?9?9?9?9*9?9*9*9?9*9,28.80,21.90,66,95580,1262,1323,413,838,745,146,91799,58143,22877,3000,258,1.0,5,5,8333.0,1034,9,999999999,81,0.2200,0,88,0.160,0.1,0.0
2016,7,21,13,58,?9?9?9?9E0?9?9?9*9*9?9?9?9?9?9?9*9?9*9*9?9*9,28.80,21.90,66,95580,1262,1323,413,837,745,146,91799,58143,22877,3000,258,1.0,5,5,8333.0,1034,9,999999999,81,0.2200,0,88,0.160,0.1,0.0
2016,7,21,13,59,?9?9?9?9E0?9?9?9*9*9?9?9?9?9?9?9*9?9*9*9?9*9,28.80,21.90,66,95580,1262,1323,413,837,745,146,91799,58143,22877,3000,258,1.0,5,5,8333.0,1034,9,999999999,81,0.2200,0,88,0.160,0.1,0.0
2016,7,21,13,60,?9?9?9?9E0?9?9?9*9*9?9?9?9?9?9?9*9?9*9*9?9*9,28.80,21.90,66,95580,1262,1323,413,836,745,146,91799,58143,22877,3000,258,1.0,5,5,8333.0,1034,9,999999999,81,0.2200,0,88,0.160,0.1,0.0
2016,7,21,14,1,?9?9?9?9E0?9?9?9*9*9?9?9?9?9?9?9*9?9*9*9?9*9,29.10,22.10,66,95512,1157,1323,414,836,745,154,86460,66086,23276,3504,258,1.0,5,5,8333.0,926,9,999999999,83,0.2200,0,88,0.160,0.2,0.0
2016,7,21,14,2,?9?9?9?9E0?9?9?9*9*9?9?9?9?9?9?9*9?9*9*9?9*9,29.10,22.10,66,95512,1157,1323,414,834,744,154,86460,66086,23276,3504,258,1.0,5,5,8333.0,926,9,999999999,83,0.2200,0,88,0.160,0.2,0.0
2016,7,21,14,3,?9?9?9?9E0?9?9?9*9*9?9?9?9?9?9?9*9?9*9*9?9*9,29.10,22.10,66,95512,1157,1323,414,832,743,154,86460,66086,23276,3504,258,1.0,5,5,8333.0,926,9,999999999,83,0.2200,0,88,0.160,0.2,0.0
2016,7,21,14,4,?9?9?9?9E0?9?9?9*9*9?9?9?9?9?9?9*9?9*9*9?9*9,29.10,22.10,66,95512,1157,1323,414,829,742,154,86460,66086,23276,3504,258,1.0,5,5,8333.0,926,9,999999999,83,0.2200,0,88,0.160,0.2,0.0
2016,7,21,14,5,?9?9?9?9E0?9?9?9*9*9?9?9?9?9?9?9*9?9*9*9?9*9,29.10,22.10,66,95512,1157,1323,414,827,741,154,86460,66086,23276,3504,258,1.0,5,5,8333.0,926,9,999999999,83,0.2200,0,88,0.160,0.2,0.0
2016,7,21,14,6,?9?9?9?9E0?9?9?9*9*9?9?9?9?9?9?9*9?9*9*9?9*9,29.10,22.10,66,95512,1157,1323,414,825,740,154,86460,66086,23276,3504,258,1.0,5,5,8333.0,926,9,999999999,83,0.2200,0,88,0.160,0.2,0.0
2016,7,21,14,7,?9?9?9?9E0?9?9?9*9*9?9?9?9?9?9?9*9?9*9*9?9*9,29.10,22.10,66,95512,1157,1323,414,823,739,154,86460,66086,23276,3504,258,1.0,5,5,8333.0,926,9,999999999,83,0.2200,0,88,0.160,0.2,0.0
2016,7,21,14,8,?9?9?9?9E0?9?9?9*9*9?9?9?9?9?9?9*9?9*9*9?9*9,29.10,22.10,66,95512,1157,1323,414,821,738,154,86460,66086,23276,3504,258,1.0,5,5,8333.0,926,9,999999999,83,0.2200,0,88,0.160,0.2,0.0
2016,7,21,14,9,?9?9?9?9E0?9?9?9*9*9?9?9?9?9?9?9*9?9*9*9?9*9,29.10,22.10,66,95512,1157,1323,414,818,737,154,86460,66086,23276,3504,258,1.0,5,5,8333.0,926,9,999999999,83,0.2200,0,88,0.160,0.2,0.0
2016,7,21,14,10,?9?9?9?9E0?9?9?9*9*9?9?9?9?9?9?9*9?9*9*9?9*9,29.10,22.10,66,95512,1157,1323,414,816,736,154,86460,66086,23276,3504,258,1.0,5,5,8333.0,926,9,999999999,83,0.2200,0,88,0.160,0.2,0.0
2016,7,21,14,11,?9?9?9?9E0?9?9?9*9*9?9?9?9?9?9?9*9?9*9*9?9*9,29.10,22.10,66,95512,1157,1323,414,814,735,154,86460,66086,23276,3504,258,1.0,5,5,8333.0,926,9,999999999,83,0.2200,0,88,0.160,0.2,0.0
2016,7,21,14,12,?9?9?9?9E0?9?9?9*9*9?9?9?9?9?9?9*9?9*9*9?9*9,29.10,22.10,66,95512,1157,1323,414,812,734,154,86460,66086,23276,3504,258,1.0,5,5,8333.0,926,9,999999999,83,0.2200,0,88,0.160,0.2,0.0
2016,7,21,14,13,?9?9?9?9E0?9?9?9*9*9?9?9?9?9?9?9*9?9*9*9?9*9,29.10,22.10,66,95512,1157,1323,414,810,733,154,86460,66086,23276,3504,258,1.0,5,5,8333.0,926,9,999999999,83,0.2200,0,88,0.160,0.2,0.0
2016,7,21,14,14,?9?9?9?9E0?9?9?9*9*9?9?9?9?9?9?9*9?9*9*9?9*9,29.10,22.10,66,95512,1157,1323,414,807,732,154,86460,66086,23276,3504,258,1.0,5,5,8333.0,926,9,999999999,83,0.2200,0,88,0.160,0.2,0.0
2016,7,21,14,15,?9?9?9?9E0?9?9?9*9*9?9?9?9?9?9?9*9?9*9*9?9*9,29.10,22.10,66,95512,1157,1323,414,805,731,154,86460,66086,23276,3504,258,1.0,5,5,8333.0,926,9,999999999,83,0.2200,0,88,0.160,0.2,0.0
2016,7,21,14,16,?9?9?9?9E0?9?9?9*9*9?9?9?9?9?9?9*9?9*9*9?9*9,29.10,22.10,66,95512,1157,1323,414,803,730,154,86460,66086,23276,3504,258,1.0,5,5,8333.0,926,9,999999999,83,0.2200,0,88,0.160,0.2,0.0
2016,7,21,14,17,?9?9?9?9E0?9?9?9*9*9?9?9?9?9?9?9*9?9*9*9?9*9,29.10,22.10,66,95512,1157,1323,414,801,729,154,86460,66086,23276,3504,258,1.0,5,5,8333.0,926,9,999999999,83,0.2200,0,88,0.160,0.2,0.0
2016,7,21,14,18,?9?9?9?9E0?9?9?9*9*9?9?9?9?9?9?9*9?9*9*9?9*9,29.10,22.10,66,95512,1157,1323,414,799,728,154,86460,66086,23276,3504,258,1.0,5,5,8333.0,926,9,999999999,83,0.2200,0,88,0.160,0.2,0.0
2016,7,21,14,19,?9?9?9?9E0?9?9?9*9*9?9?9?9?9?9?9*9?9*9*9?9*9,29.10,22.10,66,95512,1157,1323,414,796,727,154,86460,66086,23276,3504,258,1.0,5,5,8333.0,926,9,999999999,83,0.2200,0,88,0.160,0.2,0.0
2016,7,21,14,20,?9?9?9?9E0?9?9?9*9*9?9?9?9?9?9?9*9?9*9*9?9*9,29.10,22.10,66,95512,1157,1323,414,794,726,154,86460,66086,23276,3504,258,1.0,5,5,8333.0,926,9,999999999,83,0.2200,0,88,0.160,0.2,0.0
2016,7,21,14,21,?9?9?9?9E0?9?9?9*9*9?9?9?9?9?9?9*9?9*9*9?9*9,29.10,22.10,66,95512,1157,1323,414,792,725,154,86460,66086,23276,3504,258,1.0,5,5,8333.0,926,9,999999999,83,0.2200,0,88,0.160,0.2,0.0
2016,7,21,14,22,?9?9?9?9E0?9?9?9*9*9?9?9?9?9?9?9*9?9*9*9?9*9,29.10,22.10,66,95512,1157,1323,414,790,724,154,86460,66086,23276,3504,258,1.0,5,5,8333.0,926,9,999999999,83,0.2200,0,88,0.160,0.2,0.0
2016,7,21,14,23,?9?9?9?9E0?9?9?9*9*9?9?9?9?9?9?9*9?9*9*9?9*9,29.10,22.10,66,95512,1157,1323,414,788,723,154,86460,66086,23276,3504,258,1.0,5,5,8333.0,926,9,999999999,83,0.2200,0,88,0.160,0.2,0.0
2016,7,21,14,24,?9?9?9?9E0?9?9?9*9*9?9?9?9?9?9?9*9?9*9*9?9*9,29.10,22.10,66,95512,1157,1323,414,785,722,154,86460,66086,23276,3504,258,1.0,5,5,8333.0,926,9,999999999,83,0.2200,0,88,0.160,0.2,0.0
2016,7,21,14,25,?9?9?9?9E0?9?9?9*9*9?9?9?9?9?9?9*9?9*9*9?9*9,29.10,22.10,66,95512,1157,1323,414,783,721,154,86460,66086,23276,3504,258,1.0,5,5,8333.0,926,9,999999999,83,0.2200,0,88,0.160,0.2,0.0
2016,7,21,14,26,?9?9?9?9E0?9?9?9*9*9?9?9?9?9?9?9*9?9*9*9?9*9,29.10,22.10,66,95512,1157,1323,414,781,720,154,86460,66086,23276,3504,258,1.0,5,5,8333.0,926,9,999999999,83,0.2200,0,88,0.160,0.2,0.0
2016,7,21,14,27,?9?9?9?9E0?9?9?9*9*9?9?9?9?9?9?9*9?9*9*9?9*9,32.30,22.10,70.0,99063,1157,1323,414,779,719,154,86460,66086,23276,3504,258,1.0,5,5,8333.0,926,9,999999999,83,0.2200,0,88,0.160,0.2,0.0
2016,7,21,14,28,?9?9?9?9E0?9?9?9*9*9?9?9?9?9?9?9*9?9*9*9?9*9,32.36,22.10,70.0,99063,1157,1323,414,777,718,154,86460,66086,23276,3504,258,1.0,5,5,8333.0,926,9,999999999,83,0.2200,0,88,0.160,0.2,0.0
2016,7,21,14,29,?9?9?9?9E0?9?9?9*9*9?9?9?9?9?9?9*9?9*9*9?9*9,32.36,22.10,70.0,99063,1157,1323,414,774,717,154,86460,66086,23276,3504,258,1.0,5,5,8333.0,926,9,999999999,83,0.2200,0,88,0.160,0.2,0.0
2016,7,21,14,30,?9?9?9?9E0?9?9?9*9*9?9?9?9?9?9?9*9?9*9*9?9*9,32.41,22.10,70.0,99063,1157,1323,414,772,716,154,86460,66086,23276,3504,258,1.0,5,5,8333.0,926,9,999999999,83,0.2200,0,88,0.160,0.2,0.0
2016,7,21,14,31,?9?9?9?9E0?9?9?9*9*9?9?9?9?9?9?9*9?9*9*9?9*9,32.45,22.10,70.0,99063,1157,1323,414,770,716,154,86460,66086,23276,3504,258,1.0,5,5,8333.0,926,9,999999999,83,0.2200,0,88,0.160,0.2,0.0
2016,7,21,14,32,?9?9?9?9E0?9?9?9*9*9?9?9?9?9?9?9*9?9*9*9?9*9,32.44,22.10,70.0,99063,1157,1323,414,768,715,154,86460,66086,23276,3504,258,1.0,5,5,8333.0,926,9,999999999,83,0.2200,0,88,0.160,0.2,0.0
2016,7,21,14,33,?9?9?9?9E0?9?9?9*9*9?9?9?9?9?9?9*9?9*9*9?9*9,32.40,22.10,70.0,99063,1157,1323,414,766,714,154,86460,66086,23276,3504,258,1.0,5,5,8333.0,926,9,999999999,83,0.2200,0,88,0.160,0.2,0.0
2016,7,21,14,34,?9?9?9?9E0?9?9?9*9*9?9?9?9?9?9?9*9?9*9*9?9*9,32.35,22.10,70.0,99063,1157,1323,414,763,713,154,86460,66086,23276,3504,258,1.0,5,5,8333.0,926,9,999999999,83,0.2200,0,88,0.160,0.2,0.0
2016,7,21,14,35,?9?9?9?9E0?9?9?9*9*9?9?9?9?9?9?9*9?9*9*9?9*9,32.23,22.10,70.0,99063,1157,1323,414,761,712,154,86460,66086,23276,3504,258,1.0,5,5,8333.0,926,9,999999999,83,0.2200,0,88,0.160,0.2,0.0
2016,7,21,14,36,?9?9?9?9E0?9?9?9*9*9?9?9?9?9?9?9*9?9*9*9?9*9,32.12,22.10,70.0,99063,1157,1323,414,759,711,154,86460,66086,23276,3504,258,1.0,5,5,8333.0,926,9,999999999,83,0.2200,0,88,0.160,0.2,0.0
2016,7,21,14,37,?9?9?9?9E0?9?9?9*9*9?9?9?9?9?9?9*9?9*9*9?9*9,32.12,22.10,70.0,99063,1157,1323,414,757,710,154,86460,66086,23276,3504,258,1.0,5,5,8333.0,926,9,999999999,83,0.2200,0,88,0.160,0.2,0.0
2016,7,21,14,38,?9?9?9?9E0?9?9?9*9*9?9?9?9?9?9?9*9?9*9*9?9*9,32.16,22.10,70.0,99063,1157,1323,414,755,709,154,86460,66086,23276,3504,258,1.0,5,5,8333.0,926,9,999999999,83,0.2200,0,88,0.160,0.2,0.0
2016,7,21,14,39,?9?9?9?9E0?9?9?9*9*9?9?9?9?9?9?9*9?9*9*9?9*9,32.27,22.10,70.0,99063,1157,1323,414,752,708,154,86460,66086,23276,3504,258,1.0,5,5,8333.0,926,9,999999999,83,0.2200,0,88,0.160,0.2,0.0
2016,7,21,14,40,?9?9?9?9E0?9?9?9*9*9?9?9?9?9?9?9*9?9*9*9?9*9,32.29,22.10,70.0,99063,1157,1323,414,750,707,154,86460,66086,23276,3504,258,1.0,5,5,8333.0,926,9,999999999,83,0.2200,0,88,0.160,0.2,0.0
2016,7,21,14,41,?9?9?9?9E0?9?9?9*9*9?9?9?9?9?9?9*9?9*9*9?9*9,32.48,22.10,70.0,99063,1157,1323,414,748,706,154,86460,66086,23276,3504,258,1.0,5,5,8333.0,926,9,999999999,83,0.2200,0,88,0.160,0.2,0.0
2016,7,21,14,42,?9?9?9?9E0?9?9?9*9*9?9?9?9?9?9?9*9?9*9*9?9*9,32.59,22.10,70.0,99063,1157,1323,414,746,705,154,86460,66086,23276,3504,258,1.0,5,5,8333.0,926,9,999999999,83,0.2200,0,88,0.160,0.2,0.0
2016,7,21,14,43,?9?9?9?9E0?9?9?9*9*9?9?9?9?9?9?9*9?9*9*9?9*9,32.62,22.10,70.0,99063,1157,1323,414,744,704,154,86460,66086,23276,3504,258,1.0,5,5,8333.0,926,9,999999999,83,0.2200,0,88,0.160,0.2,0.0
2016,7,21,14,44,?9?9?9?9E0?9?9?9*9*9?9?9?9?9?9?9*9?9*9*9?9*9,32.44,22.10,70.0,99063,1157,1323,414,741,703,154,86460,66086,23276,3504,258,1.0,5,5,8333.0,926,9,999999999,83,0.2200,0,88,0.160,0.2,0.0
2016,7,21,14,45,?9?9?9?9E0?9?9?9*9*9?9?9?9?9?9?9*9?9*9*9?9*9,32.33,22.10,70.0,99063,1157,1323,414,739,702,154,86460,66086,23276,3504,258,1.0,5,5,8333.0,926,9,999999999,83,0.2200,0,88,0.160,0.2,0.0
2016,7,21,14,46,?9?9?9?9E0?9?9?9*9*9?9?9?9?9?9?9*9?9*9*9?9*9,32.39,22.10,70.0,99063,1157,1323,414,737,701,154,86460,66086,23276,3504,258,1.0,5,5,8333.0,926,9,999999999,83,0.2200,0,88,0.160,0.2,0.0
2016,7,21,14,47,?9?9?9?9E0?9?9?9*9*9?9?9?9?9?9?9*9?9*9*9?9*9,32.47,22.10,70.0,99063,1157,1323,414,735,700,154,86460,66086,23276,3504,258,1.0,5,5,8333.0,926,9,999999999,83,0.2200,0,88,0.160,0.2,0.0
2016,7,21,14,48,?9?9?9?9E0?9?9?9*9*9?9?9?9?9?9?9*9?9*9*9?9*9,32.62,22.10,70.0,99063,1157,1323,414,733,699,154,86460,66086,23276,3504,258,1.0,5,5,8333.0,926,9,999999999,83,0.2200,0,88,0.160,0.2,0.0
2016,7,21,14,49,?9?9?9?9E0?9?9?9*9*9?9?9?9?9?9?9*9?9*9*9?9*9,32.52,22.10,70.0,99063,1157,1323,414,730,698,154,86460,66086,23276,3504,258,1.0,5,5,8333.0,926,9,999999999,83,0.2200,0,88,0.160,0.2,0.0
2016,7,21,14,50,?9?9?9?9E0?9?9?9*9*9?9?9?9?9?9?9*9?9*9*9?9*9,32.60,22.10,70.0,99063,1157,1323,414,728,697,154,86460,66086,23276,3504,258,1.0,5,5,8333.0,926,9,999999999,83,0.2200,0,88,0.160,0.2,0.0
2016,7,21,14,51,?9?9?9?9E0?9?9?9*9*9?9?9?9?9?9?9*9?9*9*9?9*9,32.58,22.10,70.0,99063,1157,1323,414,726,696,154,86460,66086,23276,3504,258,1.0,5,5,8333.0,926,9,999999999,83,0.2200,0,88,0.160,0.2,0.0
2016,7,21,14,52,?9?9?9?9E0?9?9?9*9*9?9?9?9?9?9?9*9?9*9*9?9*9,32.61,22.10,70.0,99063,1157,1323,414,724,695,154,86460,66086,23276,3504,258,1.0,5,5,8333.0,926,9,999999999,83,0.2200,0,88,0.160,0.2,0.0
2016,7,21,14,53,?9?9?9?9E0?9?9?9*9*9?9?9?9?9?9?9*9?9*9*9?9*9,32.69,22.10,70.0,99063,1157,1323,414,722,694,154,86460,66086,23276,3504,258,1.0,5,5,8333.0,926,9,999999999,83,0.2200,0,88,0.160,0.2,0.0
2016,7,21,14,54,?9?9?9?9E0?9?9?9*9*9?9?9?9?9?9?9*9?9*9*9?9*9,32.79,22.10,70.0,99063,1157,1323,414,719,693,154,86460,66086,23276,3504,258,1.0,5,5,8333.0,926,9,999999999,83,0.2200,0,88,0.160,0.2,0.0
2016,7,21,14,55,?9?9?9?9E0?9?9?9*9*9?9?9?9?9?9?9*9?9*9*9?9*9,32.74,22.10,70.0,99063,1157,1323,414,717,692,154,86460,66086,23276,3504,258,1.0,5,5,8333.0,926,9,999999999,83,0.2200,0,88,0.160,0.2,0.0
2016,7,21,14,56,?9?9?9?9E0?9?9?9*9*9?9?9?9?9?9?9*9?9*9*9?9*9,32.75,22.10,70.0,99063,1157,1323,414,715,691,154,86460,66086,23276,3504,258,1.0,5,5,8333.0,926,9,999999999,83,0.2200,0,88,0.160,0.2,0.0
2016,7,21,14,57,?9?9?9?9E0?9?9?9*9*9?9?9?9?9?9?9*9?9*9*9?9*9,32.65,22.10,70.0,99063,1157,1323,414,713,690,154,86460,66086,23276,3504,258,1.0,5,5,8333.0,926,9,999999999,83,0.2200,0,88,0.160,0.2,0.0
2016,7,21,14,58,?9?9?9?9E0?9?9?9*9*9?9?9?9?9?9?9*9?9*9*9?9*9,32.59,22.10,70.0,99063,1157,1323,414,711,689,154,86460,66086,23276,3504,258,1.0,5,5,8333.0,926,9,999999999,83,0.2200,0,88,0.160,0.2,0.0
2016,7,21,14,59,?9?9?9?9E0?9?9?9*9*9?9?9?9?9?9?9*9?9*9*9?9*9,32.54,22.10,70.0,99063,1157,1323,414,708,688,154,86460,66086,23276,3504,258,1.0,5,5,8333.0,926,9,999999999,83,0.2200,0,88,0.160,0.2,0.0
2016,7,21,14,60,?9?9?9?9E0?9?9?9*9*9?9?9?9?9?9?9*9?9*9*9?9*9,32.57,22.10,70.0,99063,1157,1323,414,706,687,154,86460,66086,23276,3504,258,1.0,5,5,8333.0,926,9,999999999,83,0.2200,0,88,0.160,0.2,0.0
2016,7,21,15,1,?9?9?9?9E0?9?9?9?9?9?9?9?9?9?9?9*9?9*9*9?9*9,32.54,22.30,70.0,99063,978,1323,412,704,686,146,70350,63699,20530,4499,270,1.0,8,8,8333.0,540,9,999999999,84,0.2200,0,88,0.160,0.2,0.0
2016,7,21,15,2,?9?9?9?9E0?9?9?9?9?9?9?9?9?9?9?9*9?9*9*9?9*9,32.72,22.30,70.0,99063,978,1323,412,701,684,146,70350,63699,20530,4499,270,1.0,8,8,8333.0,540,9,999999999,84,0.2200,0,88,0.160,0.2,0.0
2016,7,21,15,3,?9?9?9?9E0?9?9?9?9?9?9?9?9?9?9?9*9?9*9*9?9*9,32.68,22.30,70.0,99063,978,1323,412,698,683,146,70350,63699,20530,4499,270,1.0,8,8,8333.0,540,9,999999999,84,0.2200,0,88,0.160,0.2,0.0
2016,7,21,15,4,?9?9?9?9E0?9?9?9?9?9?9?9?9?9?9?9*9?9*9*9?9*9,32.63,22.30,70.0,99063,978,1323,412,695,681,146,70350,63699,20530,4499,270,1.0,8,8,8333.0,540,9,999999999,84,0.2200,0,88,0.160,0.2,0.0
2016,7,21,15,5,?9?9?9?9E0?9?9?9?9?9?9?9?9?9?9?9*9?9*9*9?9*9,32.64,22.30,70.0,99063,978,1323,412,691,679,146,70350,63699,20530,4499,270,1.0,8,8,8333.0,540,9,999999999,84,0.2200,0,88,0.160,0.2,0.0
2016,7,21,15,6,?9?9?9?9E0?9?9?9?9?9?9?9?9?9?9?9*9?9*9*9?9*9,32.63,22.30,70.0,99063,978,1323,412,688,678,146,70350,63699,20530,4499,270,1.0,8,8,8333.0,540,9,999999999,84,0.2200,0,88,0.160,0.2,0.0
2016,7,21,15,7,?9?9?9?9E0?9?9?9?9?9?9?9?9?9?9?9*9?9*9*9?9*9,32.61,22.30,70.0,99063,978,1323,412,685,676,146,70350,63699,20530,4499,270,1.0,8,8,8333.0,540,9,999999999,84,0.2200,0,88,0.160,0.2,0.0
2016,7,21,15,8,?9?9?9?9E0?9?9?9?9?9?9?9?9?9?9?9*9?9*9*9?9*9,32.66,22.30,70.0,99063,978,1323,412,682,675,146,70350,63699,20530,4499,270,1.0,8,8,8333.0,540,9,999999999,84,0.2200,0,88,0.160,0.2,0.0
2016,7,21,15,9,?9?9?9?9E0?9?9?9?9?9?9?9?9?9?9?9*9?9*9*9?9*9,32.69,22.30,70.0,99063,978,1323,412,679,673,146,70350,63699,20530,4499,270,1.0,8,8,8333.0,540,9,999999999,84,0.2200,0,88,0.160,0.2,0.0
2016,7,21,15,10,?9?9?9?9E0?9?9?9?9?9?9?9?9?9?9?9*9?9*9*9?9*9,32.72,22.30,70.0,99063,978,1323,412,676,671,146,70350,63699,20530,4499,270,1.0,8,8,8333.0,540,9,999999999,84,0.2200,0,88,0.160,0.2,0.0
2016,7,21,15,11,?9?9?9?9E0?9?9?9?9?9?9?9?9?9?9?9*9?9*9*9?9*9,32.79,22.30,70.0,99063,978,1323,412,672,670,146,70350,63699,20530,4499,270,0.9,8,8,8333.0,540,9,999999999,84,0.2200,0,88,0.160,0.2,0.0
2016,7,21,15,12,?9?9?9?9E0?9?9?9?9?9?9?9?9?9?9?9*9?9*9*9?9*9,32.82,22.30,70.0,99063,978,1323,412,669,668,146,70350,63699,20530,4499,270,0.9,8,8,8333.0,540,9,999999999,84,0.2200,0,88,0.160,0.2,0.0
2016,7,21,15,13,?9?9?9?9E0?9?9?9?9?9?9?9?9?9?9?9*9?9*9*9?9*9,32.74,22.30,70.0,99063,978,1323,412,666,666,146,70350,63699,20530,4499,270,0.9,8,8,8333.0,540,9,999999999,84,0.2200,0,88,0.160,0.2,0.0
2016,7,21,15,14,?9?9?9?9E0?9?9?9?9?9?9?9?9?9?9?9*9?9*9*9?9*9,32.69,22.30,70.0,99063,978,1323,412,663,665,146,70350,63699,20530,4499,270,0.9,8,8,8333.0,540,9,999999999,84,0.2200,0,88,0.160,0.2,0.0
2016,7,21,15,15,?9?9?9?9E0?9?9?9?9?9?9?9?9?9?9?9*9?9*9*9?9*9,32.72,22.30,70.0,99063,978,1323,412,660,663,146,70350,63699,20530,4499,270,0.9,8,8,8333.0,540,9,999999999,84,0.2200,0,88,0.160,0.2,0.0
2016,7,21,15,16,?9?9?9?9E0?9?9?9?9?9?9?9?9?9?9?9*9?9*9*9?9*9,32.74,22.30,70.0,99063,978,1323,412,657,662,146,70350,63699,20530,4499,270,0.9,8,8,8333.0,540,9,999999999,84,0.2200,0,88,0.160,0.2,0.0
2016,7,21,15,17,?9?9?9?9E0?9?9?9?9?9?9?9?9?9?9?9*9?9*9*9?9*9,32.76,22.30,70.0,99063,978,1323,412,654,660,146,70350,63699,20530,4499,270,0.9,8,8,8333.0,540,9,999999999,84,0.2200,0,88,0.160,0.2,0.0
2016,7,21,15,18,?9?9?9?9E0?9?9?9?9?9?9?9?9?9?9?9*9?9*9*9?9*9,32.82,22.30,70.0,99063,978,1323,412,650,658,146,70350,63699,20530,4499,270,0.9,8,8,8333.0,540,9,999999999,84,0.2200,0,88,0.160,0.2,0.0
2016,7,21,15,19,?9?9?9?9E0?9?9?9?9?9?9?9?9?9?9?9*9?9*9*9?9*9,32.75,22.30,70.0,99063,978,1323,412,647,657,146,70350,63699,20530,4499,270,0.9,8,8,8333.0,540,9,999999999,84,0.2200,0,88,0.160,0.2,0.0
2016,7,21,15,20,?9?9?9?9E0?9?9?9?9?9?9?9?9?9?9?9*9?9*9*9?9*9,32.68,22.30,70.0,99063,978,1323,412,644,655,146,70350,63699,20530,4499,270,0.9,8,8,8333.0,540,9,999999999,84,0.2200,0,88,0.160,0.2,0.0
2016,7,21,15,21,?9?9?9?9E0?9?9?9?9?9?9?9?9?9?9?9*9?9*9*9?9*9,32.65,22.30,70.0,99063,978,1323,412,641,653,146,70350,63699,20530,4499,270,0.9,8,8,8333.0,540,9,999999999,84,0.2200,0,88,0.160,0.2,0.0
2016,7,21,15,22,?9?9?9?9E0?9?9?9?9?9?9?9?9?9?9?9*9?9*9*9?9*9,32.70,22.30,70.0,99063,978,1323,412,638,652,146,70350,63699,20530,4499,270,0.9,8,8,8333.0,540,9,999999999,84,0.2200,0,88,0.160,0.2,0.0
2016,7,21,15,23,?9?9?9?9E0?9?9?9?9?9?9?9?9?9?9?9*9?9*9*9?9*9,32.61,22.30,70.0,99063,978,1323,412,635,650,146,70350,63699,20530,4499,270,0.9,8,8,8333.0,540,9,999999999,84,0.2200,0,88,0.160,0.2,0.0
2016,7,21,15,24,?9?9?9?9E0?9?9?9?9?9?9?9?9?9?9?9*9?9*9*9?9*9,32.53,22.30,70.0,99063,978,1323,412,632,648,146,70350,63699,20530,4499,270,0.9,8,8,8333.0,540,9,999999999,84,0.2200,0,88,0.160,0.2,0.0
2016,7,21,15,25,?9?9?9?9E0?9?9?9?9?9?9?9?9?9?9?9*9?9*9*9?9*9,32.60,22.30,70.0,99063,978,1323,412,628,647,146,70350,63699,20530,4499,270,0.9,8,8,8333.0,540,9,999999999,84,0.2200,0,88,0.160,0.2,0.0
2016,7,21,15,26,?9?9?9?9E0?9?9?9?9?9?9?9?9?9?9?9*9?9*9*9?9*9,32.68,22.30,70.0,99063,978,1323,412,625,645,146,70350,63699,20530,4499,270,0.9,8,8,8333.0,540,9,999999999,84,0.2200,0,88,0.160,0.2,0.0
2016,7,21,15,27,?9?9?9?9E0?9?9?9?9?9?9?9?9?9?9?9*9?9*9*9?9*9,32.68,22.30,70.0,99063,978,1323,412,622,644,146,70350,63699,20530,4499,270,0.9,8,8,8333.0,540,9,999999999,84,0.2200,0,88,0.160,0.2,0.0
2016,7,21,15,28,?9?9?9?9E0?9?9?9?9?9?9?9?9?9?9?9*9?9*9*9?9*9,32.75,22.30,70.0,99063,978,1323,412,619,642,146,70350,63699,20530,4499,270,0.9,8,8,8333.0,540,9,999999999,84,0.2200,0,88,0.160,0.2,0.0
2016,7,21,15,29,?9?9?9?9E0?9?9?9?9?9?9?9?9?9?9?9*9?9*9*9?9*9,32.66,22.30,70.0,99063,978,1323,412,616,640,146,70350,63699,20530,4499,270,0.9,8,8,8333.0,540,9,999999999,84,0.2200,0,88,0.160,0.2,0.0
2016,7,21,15,30,?9?9?9?9E0?9?9?9?9?9?9?9?9?9?9?9*9?9*9*9?9*9,32.71,22.30,70.0,99063,978,1323,412,613,639,146,70350,63699,20530,4499,270,0.9,8,8,8333.0,540,9,999999999,84,0.2200,0,88,0.160,0.2,0.0
2016,7,21,15,31,?9?9?9?9E0?9?9?9?9?9?9?9?9?9?9?9*9?9*9*9?9*9,32.78,22.30,70.0,99063,978,1323,412,610,637,146,70350,63699,20530,4499,270,0.8,8,8,8333.0,540,9,999999999,84,0.2200,0,88,0.160,0.2,0.0
2016,7,21,15,32,?9?9?9?9E0?9?9?9?9?9?9?9?9?9?9?9*9?9*9*9?9*9,32.67,22.30,70.0,99063,978,1323,412,606,635,146,70350,63699,20530,4499,270,0.8,8,8,8333.0,540,9,999999999,84,0.2200,0,88,0.160,0.2,0.0
2016,7,21,15,33,?9?9?9?9E0?9?9?9?9?9?9?9?9?9?9?9*9?9*9*9?9*9,32.58,22.30,70.0,99063,978,1323,412,603,634,146,70350,63699,20530,4499,270,0.8,8,8,8333.0,540,9,999999999,84,0.2200,0,88,0.160,0.2,0.0
2016,7,21,15,34,?9?9?9?9E0?9?9?9?9?9?9?9?9?9?9?9*9?9*9*9?9*9,32.61,22.30,70.0,99063,978,1323,412,600,632,146,70350,63699,20530,4499,270,0.8,8,8,8333.0,540,9,999999999,84,0.2200,0,88,0.160,0.2,0.0
2016,7,21,15,35,?9?9?9?9E0?9?9?9?9?9?9?9?9?9?9?9*9?9*9*9?9*9,32.55,22.30,70.0,99063,978,1323,412,597,630,146,70350,63699,20530,4499,270,0.8,8,8,8333.0,540,9,999999999,84,0.2200,0,88,0.160,0.2,0.0
2016,7,21,15,36,?9?9?9?9E0?9?9?9?9?9?9?9?9?9?9?9*9?9*9*9?9*9,32.57,22.30,70.0,99063,978,1323,412,594,629,146,70350,63699,20530,4499,270,0.8,8,8,8333.0,540,9,999999999,84,0.2200,0,88,0.160,0.2,0.0
2016,7,21,15,37,?9?9?9?9E0?9?9?9?9?9?9?9?9?9?9?9*9?9*9*9?9*9,32.57,22.30,70.0,99063,978,1323,412,591,627,146,70350,63699,20530,4499,270,0.8,8,8,8333.0,540,9,999999999,84,0.2200,0,88,0.160,0.2,0.0
2016,7,21,15,38,?9?9?9?9E0?9?9?9?9?9?9?9?9?9?9?9*9?9*9*9?9*9,32.49,22.30,70.0,99063,978,1323,412,587,626,146,70350,63699,20530,4499,270,0.8,8,8,8333.0,540,9,999999999,84,0.2200,0,88,0.160,0.2,0.0
2016,7,21,15,39,?9?9?9?9E0?9?9?9?9?9?9?9?9?9?9?9*9?9*9*9?9*9,32.65,22.30,70.0,99063,978,1323,412,584,624,146,70350,63699,20530,4499,270,0.8,8,8,8333.0,540,9,999999999,84,0.2200,0,88,0.160,0.2,0.0
2016,7,21,15,40,?9?9?9?9E0?9?9?9?9?9?9?9?9?9?9?9*9?9*9*9?9*9,32.62,22.30,70.0,99063,978,1323,412,581,622,146,70350,63699,20530,4499,270,0.8,8,8,8333.0,540,9,999999999,84,0.2200,0,88,0.160,0.2,0.0
2016,7,21,15,41,?9?9?9?9E0?9?9?9?9?9?9?9?9?9?9?9*9?9*9*9?9*9,32.62,22.30,70.0,99063,978,1323,412,578,621,146,70350,63699,20530,4499,270,0.8,8,8,8333.0,540,9,999999999,84,0.2200,0,88,0.160,0.2,0.0
2016,7,21,15,42,?9?9?9?9E0?9?9?9?9?9?9?9?9?9?9?9*9?9*9*9?9*9,32.54,22.30,70.0,99063,978,1323,412,575,619,146,70350,63699,20530,4499,270,0.8,8,8,8333.0,540,9,999999999,84,0.2200,0,88,0.160,0.2,0.0
2016,7,21,15,43,?9?9?9?9E0?9?9?9?9?9?9?9?9?9?9?9*9?9*9*9?9*9,32.48,22.30,70.0,99063,978,1323,412,572,617,146,70350,63699,20530,4499,270,0.8,8,8,8333.0,540,9,999999999,84,0.2200,0,88,0.160,0.2,0.0
2016,7,21,15,44,?9?9?9?9E0?9?9?9?9?9?9?9?9?9?9?9*9?9*9*9?9*9,32.40,22.30,70.0,99063,978,1323,412,569,616,146,70350,63699,20530,4499,270,0.8,8,8,8333.0,540,9,999999999,84,0.2200,0,88,0.160,0.2,0.0
2016,7,21,15,45,?9?9?9?9E0?9?9?9?9?9?9?9?9?9?9?9*9?9*9*9?9*9,32.45,22.30,70.0,99063,978,1323,412,565,614,146,70350,63699,20530,4499,270,0.8,8,8,8333.0,540,9,999999999,84,0.2200,0,88,0.160,0.2,0.0
2016,7,21,15,46,?9?9?9?9E0?9?9?9?9?9?9?9?9?9?9?9*9?9*9*9?9*9,32.50,22.30,70.0,99063,978,1323,412,562,612,146,70350,63699,20530,4499,270,0.8,8,8,8333.0,540,9,999999999,84,0.2200,0,88,0.160,0.2,0.0
2016,7,21,15,47,?9?9?9?9E0?9?9?9?9?9?9?9?9?9?9?9*9?9*9*9?9*9,32.54,22.30,70.0,99063,978,1323,412,559,611,146,70350,63699,20530,4499,270,0.8,8,8,8333.0,540,9,999999999,84,0.2200,0,88,0.160,0.2,0.0
2016,7,21,15,48,?9?9?9?9E0?9?9?9?9?9?9?9?9?9?9?9*9?9*9*9?9*9,32.60,22.30,70.0,99063,978,1323,412,556,609,146,70350,63699,20530,4499,270,0.8,8,8,8333.0,540,9,999999999,84,0.2200,0,88,0.160,0.2,0.0
2016,7,21,15,49,?9?9?9?9E0?9?9?9?9?9?9?9?9?9?9?9*9?9*9*9?9*9,32.70,22.30,70.0,99063,978,1323,412,553,608,146,70350,63699,20530,4499,270,0.8,8,8,8333.0,540,9,999999999,84,0.2200,0,88,0.160,0.2,0.0
2016,7,21,15,50,?9?9?9?9E0?9?9?9?9?9?9?9?9?9?9?9*9?9*9*9?9*9,32.81,22.30,70.0,99063,978,1323,412,550,606,146,70350,63699,20530,4499,270,0.8,8,8,8333.0,540,9,999999999,84,0.2200,0,88,0.160,0.2,0.0
2016,7,21,15,51,?9?9?9?9E0?9?9?9?9?9?9?9?9?9?9?9*9?9*9*9?9*9,32.71,22.30,70.0,99063,978,1323,412,546,604,146,70350,63699,20530,4499,270,0.8,8,8,8333.0,540,9,999999999,84,0.2200,0,88,0.160,0.2,0.0
2016,7,21,15,52,?9?9?9?9E0?9?9?9?9?9?9?9?9?9?9?9*9?9*9*9?9*9,32.73,22.30,70.0,99063,978,1323,412,543,603,146,70350,63699,20530,4499,270,0.7,8,8,8333.0,540,9,999999999,84,0.2200,0,88,0.160,0.2,0.0
2016,7,21,15,53,?9?9?9?9E0?9?9?9?9?9?9?9?9?9?9?9*9?9*9*9?9*9,32.65,22.30,70.0,99063,978,1323,412,540,601,146,70350,63699,20530,4499,270,0.7,8,8,8333.0,540,9,999999999,84,0.2200,0,88,0.160,0.2,0.0
2016,7,21,15,54,?9?9?9?9E0?9?9?9?9?9?9?9?9?9?9?9*9?9*9*9?9*9,32.61,22.30,70.0,99063,978,1323,412,537,599,146,70350,63699,20530,4499,270,0.7,8,8,8333.0,540,9,999999999,84,0.2200,0,88,0.160,0.2,0.0
2016,7,21,15,55,?9?9?9?9E0?9?9?9?9?9?9?9?9?9?9?9*9?9*9*9?9*9,32.62,22.30,70.0,99063,978,1323,412,534,598,146,70350,63699,20530,4499,270,0.7,8,8,8333.0,540,9,999999999,84,0.2200,0,88,0.160,0.2,0.0
2016,7,21,15,56,?9?9?9?9E0?9?9?9?9?9?9?9?9?9?9?9*9?9*9*9?9*9,32.64,22.30,70.0,99063,978,1323,412,531,596,146,70350,63699,20530,4499,270,0.7,8,8,8333.0,540,9,999999999,84,0.2200,0,88,0.160,0.2,0.0
2016,7,21,15,57,?9?9?9?9E0?9?9?9?9?9?9?9?9?9?9?9*9?9*9*9?9*9,32.74,22.30,70.0,99063,978,1323,412,528,595,146,70350,63699,20530,4499,270,0.7,8,8,8333.0,540,9,999999999,84,0.2200,0,88,0.160,0.2,0.0
2016,7,21,15,58,?9?9?9?9E0?9?9?9?9?9?9?9?9?9?9?9*9?9*9*9?9*9,32.81,22.30,70.0,99063,978,1323,412,524,593,146,70350,63699,20530,4499,270,0.7,8,8,8333.0,540,9,999999999,84,0.2200,0,88,0.160,0.2,0.0
2016,7,21,15,59,?9?9?9?9E0?9?9?9?9?9?9?9?9?9?9?9*9?9*9*9?9*9,32.82,22.30,70.0,99063,978,1323,412,521,591,146,70350,63699,20530,4499,270,0.7,8,8,8333.0,540,9,999999999,84,0.2200,0,88,0.160,0.2,0.0
2016,7,21,15,60,?9?9?9?9E0?9?9?9?9?9?9?9?9?9?9?9*9?9*9*9?9*9,32.85,22.30,70.0,99063,978,1323,412,518,590,146,70350,63699,20530,4499,270,0.7,8,8,8333.0,540,9,999999999,84,0.2200,0,88,0.160,0.2,0.0
2016,7,21,16,1,?9?9?9?9E0?9?9?9*9*9?9?9?9?9?9?9*9?9*9*9?9*9,32.71,22.40,70.0,99063,736,1323,414,515,588,130,49412,55962,16280,6105,263,0.7,6,6,8333.0,1052,9,999999999,85,0.2200,0,88,0.160,0.0,0.0
2016,7,21,16,2,?9?9?9?9E0?9?9?9*9*9?9?9?9?9?9?9*9?9*9*9?9*9,32.70,22.40,70.0,99063,736,1323,414,512,586,130,49412,55962,16280,6105,263,0.7,6,6,8333.0,1052,9,999999999,85,0.2200,0,88,0.160,0.0,0.0
2016,7,21,16,3,?9?9?9?9E0?9?9?9*9*9?9?9?9?9?9?9*9?9*9*9?9*9,32.70,22.40,70.0,99063,736,1323,414,509,584,130,49412,55962,16280,6105,263,0.7,6,6,8333.0,1052,9,999999999,85,0.2200,0,88,0.160,0.0,0.0
2016,7,21,16,4,?9?9?9?9E0?9?9?9*9*9?9?9?9?9?9?9*9?9*9*9?9*9,32.75,22.40,70.0,99063,736,1323,414,505,582,130,49412,55962,16280,6105,263,0.7,6,6,8333.0,1052,9,999999999,85,0.2200,0,88,0.160,0.0,0.0
2016,7,21,16,5,?9?9?9?9E0?9?9?9*9*9?9?9?9?9?9?9*9?9*9*9?9*9,32.68,22.40,70.0,99063,736,1323,414,502,580,130,49412,55962,16280,6105,263,0.7,6,6,8333.0,1052,9,999999999,85,0.2200,0,88,0.160,0.0,0.0
2016,7,21,16,6,?9?9?9?9E0?9?9?9*9*9?9?9?9?9?9?9*9?9*9*9?9*9,32.80,22.40,70.0,99063,736,1323,414,499,578,130,49412,55962,16280,6105,263,0.7,6,6,8333.0,1052,9,999999999,85,0.2200,0,88,0.160,0.0,0.0
2016,7,21,16,7,?9?9?9?9E0?9?9?9*9*9?9?9?9?9?9?9*9?9*9*9?9*9,32.82,22.40,70.0,99063,736,1323,414,496,576,130,49412,55962,16280,6105,263,0.7,6,6,8333.0,1052,9,999999999,85,0.2200,0,88,0.160,0.0,0.0
2016,7,21,16,8,?9?9?9?9E0?9?9?9*9*9?9?9?9?9?9?9*9?9*9*9?9*9,32.76,22.40,70.0,99063,736,1323,414,493,574,130,49412,55962,16280,6105,263,0.7,6,6,8333.0,1052,9,999999999,85,0.2200,0,88,0.160,0.0,0.0
2016,7,21,16,9,?9?9?9?9E0?9?9?9*9*9?9?9?9?9?9?9*9?9*9*9?9*9,32.74,22.40,70.0,99063,736,1323,414,489,571,130,49412,55962,16280,6105,263,0.6,6,6,8333.0,1052,9,999999999,85,0.2200,0,88,0.160,0.0,0.0
2016,7,21,16,10,?9?9?9?9E0?9?9?9*9*9?9?9?9?9?9?9*9?9*9*9?9*9,32.81,22.40,70.0,99063,736,1323,414,486,569,130,49412,55962,16280,6105,263,0.6,6,6,8333.0,1052,9,999999999,85,0.2200,0,88,0.160,0.0,0.0
2016,7,21,16,11,?9?9?9?9E0?9?9?9*9*9?9?9?9?9?9?9*9?9*9*9?9*9,32.74,22.40,70.0,99063,736,1323,414,483,567,130,49412,55962,16280,6105,263,0.6,6,6,8333.0,1052,9,999999999,85,0.2200,0,88,0.160,0.0,0.0
2016,7,21,16,12,?9?9?9?9E0?9?9?9*9*9?9?9?9?9?9?9*9?9*9*9?9*9,32.69,22.40,70.0,99063,736,1323,414,480,565,130,49412,55962,16280,6105,263,0.6,6,6,8333.0,1052,9,999999999,85,0.2200,0,88,0.160,0.0,0.0
2016,7,21,16,13,?9?9?9?9E0?9?9?9*9*9?9?9?9?9?9?9*9?9*9*9?9*9,32.75,22.40,70.0,99063,736,1323,414,477,563,130,49412,55962,16280,6105,263,0.6,6,6,8333.0,1052,9,999999999,85,0.2200,0,88,0.160,0.0,0.0
2016,7,21,16,14,?9?9?9?9E0?9?9?9*9*9?9?9?9?9?9?9*9?9*9*9?9*9,32.68,22.40,70.0,99063,736,1323,414,473,561,130,49412,55962,16280,6105,263,0.6,6,6,8333.0,1052,9,999999999,85,0.2200,0,88,0.160,0.0,0.0
2016,7,21,16,15,?9?9?9?9E0?9?9?9*9*9?9?9?9?9?9?9*9?9*9*9?9*9,32.62,22.40,70.0,99063,736,1323,414,470,559,130,49412,55962,16280,6105,263,0.6,6,6,8333.0,1052,9,999999999,85,0.2200,0,88,0.160,0.0,0.0
2016,7,21,16,16,?9?9?9?9E0?9?9?9*9*9?9?9?9?9?9?9*9?9*9*9?9*9,32.71,22.40,70.0,99063,736,1323,414,467,557,130,49412,55962,16280,6105,263,0.6,6,6,8333.0,1052,9,999999999,85,0.2200,0,88,0.160,0.0,0.0
2016,7,21,16,17,?9?9?9?9E0?9?9?9*9*9?9?9?9?9?9?9*9?9*9*9?9*9,32.72,22.40,70.0,99063,736,1323,414,464,555,130,49412,55962,16280,6105,263,0.6,6,6,8333.0,1052,9,999999999,85,0.2200,0,88,0.160,0.0,0.0
2016,7,21,16,18,?9?9?9?9E0?9?9?9*9*9?9?9?9?9?9?9*9?9*9*9?9*9,32.58,22.40,70.0,99063,736,1323,414,461,553,130,49412,55962,16280,6105,263,0.6,6,6,8333.0,1052,9,999999999,85,0.2200,0,88,0.160,0.0,0.0
2016,7,21,16,19,?9?9?9?9E0?9?9?9*9*9?9?9?9?9?9?9*9?9*9*9?9*9,32.62,22.40,70.0,99063,736,1323,414,457,551,130,49412,55962,16280,6105,263,0.6,6,6,8333.0,1052,9,999999999,85,0.2200,0,88,0.160,0.0,0.0
2016,7,21,16,20,?9?9?9?9E0?9?9?9*9*9?9?9?9?9?9?9*9?9*9*9?9*9,32.71,22.40,70.0,99063,736,1323,414,454,549,130,49412,55962,16280,6105,263,0.6,6,6,8333.0,1052,9,999999999,85,0.2200,0,88,0.160,0.0,0.0
2016,7,21,16,21,?9?9?9?9E0?9?9?9*9*9?9?9?9?9?9?9*9?9*9*9?9*9,32.72,22.40,70.0,99063,736,1323,414,451,547,130,49412,55962,16280,6105,263,0.6,6,6,8333.0,1052,9,999999999,85,0.2200,0,88,0.160,0.0,0.0
2016,7,21,16,22,?9?9?9?9E0?9?9?9*9*9?9?9?9?9?9?9*9?9*9*9?9*9,32.67,22.40,70.0,99063,736,1323,414,448,545,130,49412,55962,16280,6105,263,0.6,6,6,8333.0,1052,9,999999999,85,0.2200,0,88,0.160,0.0,0.0
2016,7,21,16,23,?9?9?9?9E0?9?9?9*9*9?9?9?9?9?9?9*9?9*9*9?9*9,32.57,22.40,70.0,99063,736,1323,414,445,543,130,49412,55962,16280,6105,263,0.6,6,6,8333.0,1052,9,999999999,85,0.2200,0,88,0.160,0.0,0.0
2016,7,21,16,24,?9?9?9?9E0?9?9?9*9*9?9?9?9?9?9?9*9?9*9*9?9*9,32.66,22.40,70.0,99063,736,1323,414,441,540,130,49412,55962,16280,6105,263,0.5,6,6,8333.0,1052,9,999999999,85,0.2200,0,88,0.160,0.0,0.0
2016,7,21,16,25,?9?9?9?9E0?9?9?9*9*9?9?9?9?9?9?9*9?9*9*9?9*9,32.64,22.40,70.0,99063,736,1323,414,438,538,130,49412,55962,16280,6105,263,0.5,6,6,8333.0,1052,9,999999999,85,0.2200,0,88,0.160,0.0,0.0
2016,7,21,16,26,?9?9?9?9E0?9?9?9*9*9?9?9?9?9?9?9*9?9*9*9?9*9,32.65,22.40,70.0,99063,736,1323,414,435,536,130,49412,55962,16280,6105,263,0.5,6,6,8333.0,1052,9,999999999,85,0.2200,0,88,0.160,0.0,0.0
2016,7,21,16,27,?9?9?9?9E0?9?9?9*9*9?9?9?9?9?9?9*9?9*9*9?9*9,32.70,22.40,70.0,99063,736,1323,414,432,534,130,49412,55962,16280,6105,263,0.5,6,6,8333.0,1052,9,999999999,85,0.2200,0,88,0.160,0.0,0.0
2016,7,21,16,28,?9?9?9?9E0?9?9?9*9*9?9?9?9?9?9?9*9?9*9*9?9*9,32.68,22.40,70.0,99063,736,1323,414,429,532,130,49412,55962,16280,6105,263,0.5,6,6,8333.0,1052,9,999999999,85,0.2200,0,88,0.160,0.0,0.0
2016,7,21,16,29,?9?9?9?9E0?9?9?9*9*9?9?9?9?9?9?9*9?9*9*9?9*9,32.71,22.40,70.0,99063,736,1323,414,425,530,130,49412,55962,16280,6105,263,0.5,6,6,8333.0,1052,9,999999999,85,0.2200,0,88,0.160,0.0,0.0
2016,7,21,16,30,?9?9?9?9E0?9?9?9*9*9?9?9?9?9?9?9*9?9*9*9?9*9,32.59,22.40,70.0,99063,736,1323,414,422,528,130,49412,55962,16280,6105,263,0.5,6,6,8333.0,1052,9,999999999,85,0.2200,0,88,0.160,0.0,0.0
2016,7,21,16,31,?9?9?9?9E0?9?9?9*9*9?9?9?9?9?9?9*9?9*9*9?9*9,32.56,22.40,70.0,99063,736,1323,414,419,526,130,49412,55962,16280,6105,263,0.5,6,6,8333.0,1052,9,999999999,85,0.2200,0,88,0.160,0.0,0.0
2016,7,21,16,32,?9?9?9?9E0?9?9?9*9*9?9?9?9?9?9?9*9?9*9*9?9*9,32.58,22.40,70.0,99063,736,1323,414,416,524,130,49412,55962,16280,6105,263,0.5,6,6,8333.0,1052,9,999999999,85,0.2200,0,88,0.160,0.0,0.0
2016,7,21,16,33,?9?9?9?9E0?9?9?9*9*9?9?9?9?9?9?9*9?9*9*9?9*9,32.50,22.40,70.0,99063,736,1323,414,413,522,130,49412,55962,16280,6105,263,0.5,6,6,8333.0,1052,9,999999999,85,0.2200,0,88,0.160,0.0,0.0
2016,7,21,16,34,?9?9?9?9E0?9?9?9*9*9?9?9?9?9?9?9*9?9*9*9?9*9,32.60,22.40,70.0,99063,736,1323,414,409,520,130,49412,55962,16280,6105,263,0.5,6,6,8333.0,1052,9,999999999,85,0.2200,0,88,0.160,0.0,0.0
2016,7,21,16,35,?9?9?9?9E0?9?9?9*9*9?9?9?9?9?9?9*9?9*9*9?9*9,32.57,22.40,70.0,99063,736,1323,414,406,518,130,49412,55962,16280,6105,263,0.5,6,6,8333.0,1052,9,999999999,85,0.2200,0,88,0.160,0.0,0.0
2016,7,21,16,36,?9?9?9?9E0?9?9?9*9*9?9?9?9?9?9?9*9?9*9*9?9*9,32.60,22.40,70.0,99063,736,1323,414,403,516,130,49412,55962,16280,6105,263,0.5,6,6,8333.0,1052,9,999999999,85,0.2200,0,88,0.160,0.0,0.0
2016,7,21,16,37,?9?9?9?9E0?9?9?9*9*9?9?9?9?9?9?9*9?9*9*9?9*9,32.75,22.40,70.0,99063,736,1323,414,400,514,130,49412,55962,16280,6105,263,0.5,6,6,8333.0,1052,9,999999999,85,0.2200,0,88,0.160,0.0,0.0
2016,7,21,16,38,?9?9?9?9E0?9?9?9*9*9?9?9?9?9?9?9*9?9*9*9?9*9,32.74,22.40,70.0,99063,736,1323,414,397,512,130,49412,55962,16280,6105,263,0.5,6,6,8333.0,1052,9,999999999,85,0.2200,0,88,0.160,0.0,0.0
2016,7,21,16,39,?9?9?9?9E0?9?9?9*9*9?9?9?9?9?9?9*9?9*9*9?9*9,32.71,22.40,70.0,99063,736,1323,414,393,509,130,49412,55962,16280,6105,263,0.4,6,6,8333.0,1052,9,999999999,85,0.2200,0,88,0.160,0.0,0.0
2016,7,21,16,40,?9?9?9?9E0?9?9?9*9*9?9?9?9?9?9?9*9?9*9*9?9*9,32.67,22.40,70.0,99063,736,1323,414,390,507,130,49412,55962,16280,6105,263,0.4,6,6,8333.0,1052,9,999999999,85,0.2200,0,88,0.160,0.0,0.0
2016,7,21,16,41,?9?9?9?9E0?9?9?9*9*9?9?9?9?9?9?9*9?9*9*9?9*9,32.70,22.40,70.0,99063,736,1323,414,387,505,130,49412,55962,16280,6105,263,0.4,6,6,8333.0,1052,9,999999999,85,0.2200,0,88,0.160,0.0,0.0
2016,7,21,16,42,?9?9?9?9E0?9?9?9*9*9?9?9?9?9?9?9*9?9*9*9?9*9,32.73,22.40,70.0,99063,736,1323,414,384,503,130,49412,55962,16280,6105,263,0.4,6,6,8333.0,1052,9,999999999,85,0.2200,0,88,0.160,0.0,0.0
2016,7,21,16,43,?9?9?9?9E0?9?9?9*9*9?9?9?9?9?9?9*9?9*9*9?9*9,32.73,22.40,70.0,99063,736,1323,414,381,501,130,49412,55962,16280,6105,263,0.4,6,6,8333.0,1052,9,999999999,85,0.2200,0,88,0.160,0.0,0.0
2016,7,21,16,44,?9?9?9?9E0?9?9?9*9*9?9?9?9?9?9?9*9?9*9*9?9*9,32.64,22.40,70.0,99063,736,1323,414,377,499,130,49412,55962,16280,6105,263,0.4,6,6,8333.0,1052,9,999999999,85,0.2200,0,88,0.160,0.0,0.0
2016,7,21,16,45,?9?9?9?9E0?9?9?9*9*9?9?9?9?9?9?9*9?9*9*9?9*9,32.54,22.40,70.0,99063,736,1323,414,374,497,130,49412,55962,16280,6105,263,0.4,6,6,8333.0,1052,9,999999999,85,0.2200,0,88,0.160,0.0,0.0
2016,7,21,16,46,?9?9?9?9E0?9?9?9*9*9?9?9?9?9?9?9*9?9*9*9?9*9,32.51,22.40,70.0,99063,736,1323,414,371,495,130,49412,55962,16280,6105,263,0.4,6,6,8333.0,1052,9,999999999,85,0.2200,0,88,0.160,0.0,0.0
2016,7,21,16,47,?9?9?9?9E0?9?9?9*9*9?9?9?9?9?9?9*9?9*9*9?9*9,32.60,22.40,70.0,99063,736,1323,414,368,493,130,49412,55962,16280,6105,263,0.4,6,6,8333.0,1052,9,999999999,85,0.2200,0,88,0.160,0.0,0.0
2016,7,21,16,48,?9?9?9?9E0?9?9?9*9*9?9?9?9?9?9?9*9?9*9*9?9*9,32.66,22.40,70.0,99063,736,1323,414,365,491,130,49412,55962,16280,6105,263,0.4,6,6,8333.0,1052,9,999999999,85,0.2200,0,88,0.160,0.0,0.0
2016,7,21,16,49,?9?9?9?9E0?9?9?9*9*9?9?9?9?9?9?9*9?9*9*9?9*9,32.64,22.40,70.0,99063,736,1323,414,361,489,130,49412,55962,16280,6105,263,0.4,6,6,8333.0,1052,9,999999999,85,0.2200,0,88,0.160,0.0,0.0
2016,7,21,16,50,?9?9?9?9E0?9?9?9*9*9?9?9?9?9?9?9*9?9*9*9?9*9,32.62,22.40,70.0,99063,736,1323,414,358,487,130,49412,55962,16280,6105,263,0.4,6,6,8333.0,1052,9,999999999,85,0.2200,0,88,0.160,0.0,0.0
2016,7,21,16,51,?9?9?9?9E0?9?9?9*9*9?9?9?9?9?9?9*9?9*9*9?9*9,32.48,22.40,70.0,99063,736,1323,414,355,485,130,49412,55962,16280,6105,263,0.4,6,6,8333.0,1052,9,999999999,85,0.2200,0,88,0.160,0.0,0.0
2016,7,21,16,52,?9?9?9?9E0?9?9?9*9*9?9?9?9?9?9?9*9?9*9*9?9*9,32.49,22.40,70.0,99063,736,1323,414,352,483,130,49412,55962,16280,6105,263,0.4,6,6,8333.0,1052,9,999999999,85,0.2200,0,88,0.160,0.0,0.0
2016,7,21,16,53,?9?9?9?9E0?9?9?9*9*9?9?9?9?9?9?9*9?9*9*9?9*9,32.68,22.40,70.0,99063,736,1323,414,349,481,130,49412,55962,16280,6105,263,0.4,6,6,8333.0,1052,9,999999999,85,0.2200,0,88,0.160,0.0,0.0
2016,7,21,16,54,?9?9?9?9E0?9?9?9*9*9?9?9?9?9?9?9*9?9*9*9?9*9,32.70,22.40,70.0,99063,736,1323,414,345,478,130,49412,55962,16280,6105,263,0.3,6,6,8333.0,1052,9,999999999,85,0.2200,0,88,0.160,0.0,0.0
2016,7,21,16,55,?9?9?9?9E0?9?9?9*9*9?9?9?9?9?9?9*9?9*9*9?9*9,32.77,22.40,70.0,99063,736,1323,414,342,476,130,49412,55962,16280,6105,263,0.3,6,6,8333.0,1052,9,999999999,85,0.2200,0,88,0.160,0.0,0.0
2016,7,21,16,56,?9?9?9?9E0?9?9?9*9*9?9?9?9?9?9?9*9?9*9*9?9*9,32.77,22.40,70.0,99063,736,1323,414,339,474,130,49412,55962,16280,6105,263,0.3,6,6,8333.0,1052,9,999999999,85,0.2200,0,88,0.160,0.0,0.0
2016,7,21,16,57,?9?9?9?9E0?9?9?9*9*9?9?9?9?9?9?9*9?9*9*9?9*9,32.86,22.40,70.0,99063,736,1323,414,336,472,130,49412,55962,16280,6105,263,0.3,6,6,8333.0,1052,9,999999999,85,0.2200,0,88,0.160,0.0,0.0
2016,7,21,16,58,?9?9?9?9E0?9?9?9*9*9?9?9?9?9?9?9*9?9*9*9?9*9,32.83,22.40,70.0,99063,736,1323,414,333,470,130,49412,55962,16280,6105,263,0.3,6,6,8333.0,1052,9,999999999,85,0.2200,0,88,0.160,0.0,0.0
2016,7,21,16,59,?9?9?9?9E0?9?9?9*9*9?9?9?9?9?9?9*9?9*9*9?9*9,32.81,22.40,70.0,99063,736,1323,414,329,468,130,49412,55962,16280,6105,263,0.3,6,6,8333.0,1052,9,999999999,85,0.2200,0,88,0.160,0.0,0.0
2016,7,21,16,60,?9?9?9?9E0?9?9?9*9*9?9?9?9?9?9?9*9?9*9*9?9*9,32.81,22.40,70.0,99063,736,1323,414,326,466,130,49412,55962,16280,6105,263,0.3,6,6,8333.0,1052,9,999999999,85,0.2200,0,88,0.160,0.0,0.0
2016,7,21,17,1,?9?9?9?9E0?9?9?9*9*9?9?9?9?9?9?9*9?9*9*9?9*9,32.82,22.40,70.0,99063,448,1323,411,323,464,105,27702,37441,11493,7346,252,0.3,6,6,8333.0,813,9,999999999,86,0.2200,0,88,0.160,0.0,0.0
2016,7,21,17,2,?9?9?9?9E0?9?9?9*9*9?9?9?9?9?9?9*9?9*9*9?9*9,32.79,22.40,70.0,99063,448,1323,411,320,460,105,27702,37441,11493,7346,252,0.3,6,6,8333.0,813,9,999999999,86,0.2200,0,88,0.160,0.0,0.0
2016,7,21,17,3,?9?9?9?9E0?9?9?9*9*9?9?9?9?9?9?9*9?9*9*9?9*9,32.77,22.40,70.0,99063,448,1323,411,316,456,105,27702,37441,11493,7346,252,0.3,6,6,8333.0,813,9,999999999,86,0.2200,0,88,0.160,0.0,0.0
2016,7,21,17,4,?9?9?9?9E0?9?9?9*9*9?9?9?9?9?9?9*9?9*9*9?9*9,32.70,22.40,70.0,99063,448,1323,411,313,452,105,27702,37441,11493,7346,252,0.3,6,6,8333.0,813,9,999999999,86,0.2200,0,88,0.160,0.0,0.0
2016,7,21,17,5,?9?9?9?9E0?9?9?9*9*9?9?9?9?9?9?9*9?9*9*9?9*9,32.62,22.40,70.0,99063,448,1323,411,310,449,105,27702,37441,11493,7346,252,0.3,6,6,8333.0,813,9,999999999,86,0.2200,0,88,0.160,0.0,0.0
2016,7,21,17,6,?9?9?9?9E0?9?9?9*9*9?9?9?9?9?9?9*9?9*9*9?9*9,32.68,22.40,70.0,99063,448,1323,411,307,445,105,27702,37441,11493,7346,252,0.3,6,6,8333.0,813,9,999999999,86,0.2200,0,88,0.160,0.0,0.0
2016,7,21,17,7,?9?9?9?9E0?9?9?9*9*9?9?9?9?9?9?9*9?9*9*9?9*9,32.67,22.40,70.0,99063,448,1323,411,304,441,105,27702,37441,11493,7346,252,0.3,6,6,8333.0,813,9,999999999,86,0.2200,0,88,0.160,0.0,0.0
2016,7,21,17,8,?9?9?9?9E0?9?9?9*9*9?9?9?9?9?9?9*9?9*9*9?9*9,32.60,22.40,70.0,99063,448,1323,411,300,437,105,27702,37441,11493,7346,252,0.3,6,6,8333.0,813,9,999999999,86,0.2200,0,88,0.160,0.0,0.0
2016,7,21,17,9,?9?9?9?9E0?9?9?9*9*9?9?9?9?9?9?9*9?9*9*9?9*9,32.64,22.40,70.0,99063,448,1323,411,297,433,105,27702,37441,11493,7346,252,0.3,6,6,8333.0,813,9,999999999,86,0.2200,0,88,0.160,0.0,0.0
2016,7,21,17,10,?9?9?9?9E0?9?9?9*9*9?9?9?9?9?9?9*9?9*9*9?9*9,32.65,22.40,70.0,99063,448,1323,411,294,429,105,27702,37441,11493,7346,252,0.3,6,6,8333.0,813,9,999999999,86,0.2200,0,88,0.160,0.0,0.0
2016,7,21,17,11,?9?9?9?9E0?9?9?9*9*9?9?9?9?9?9?9*9?9*9*9?9*9,32.65,22.40,70.0,99063,448,1323,411,290,425,105,27702,37441,11493,7346,252,0.2,6,6,8333.0,813,9,999999999,86,0.2200,0,88,0.160,0.0,0.0
2016,7,21,17,12,?9?9?9?9E0?9?9?9*9*9?9?9?9?9?9?9*9?9*9*9?9*9,32.58,22.40,70.0,99063,448,1323,411,287,421,105,27702,37441,11493,7346,252,0.2,6,6,8333.0,813,9,999999999,86,0.2200,0,88,0.160,0.0,0.0
2016,7,21,17,13,?9?9?9?9E0?9?9?9*9*9?9?9?9?9?9?9*9?9*9*9?9*9,32.49,22.40,70.0,99063,448,1323,411,284,418,105,27702,37441,11493,7346,252,0.2,6,6,8333.0,813,9,999999999,86,0.2200,0,88,0.160,0.0,0.0
2016,7,21,17,14,?9?9?9?9E0?9?9?9*9*9?9?9?9?9?9?9*9?9*9*9?9*9,32.46,22.40,70.0,99063,448,1323,411,281,414,105,27702,37441,11493,7346,252,0.2,6,6,8333.0,813,9,999999999,86,0.2200,0,88,0.160,0.0,0.0
2016,7,21,17,15,?9?9?9?9E0?9?9?9*9*9?9?9?9?9?9?9*9?9*9*9?9*9,32.51,22.40,70.0,99063,448,1323,411,278,410,105,27702,37441,11493,7346,252,0.2,6,6,8333.0,813,9,999999999,86,0.2200,0,88,0.160,0.0,0.0
2016,7,21,17,16,?9?9?9?9E0?9?9?9*9*9?9?9?9?9?9?9*9?9*9*9?9*9,32.53,22.40,70.0,99063,448,1323,411,274,406,105,27702,37441,11493,7346,252,0.2,6,6,8333.0,813,9,999999999,86,0.2200,0,88,0.160,0.0,0.0
2016,7,21,17,17,?9?9?9?9E0?9?9?9*9*9?9?9?9?9?9?9*9?9*9*9?9*9,28.10,22.40,72,95416,448,1323,411,271,402,105,27702,37441,11493,7346,252,0.2,6,6,8333.0,813,9,999999999,86,0.2200,0,88,0.160,0.0,0.0
2016,7,21,17,18,?9?9?9?9E0?9?9?9*9*9?9?9?9?9?9?9*9?9*9*9?9*9,28.10,22.40,72,95416,448,1323,411,268,398,105,27702,37441,11493,7346,252,0.2,6,6,8333.0,813,9,999999999,86,0.2200,0,88,0.160,0.0,0.0
2016,7,21,17,19,?9?9?9?9E0?9?9?9*9*9?9?9?9?9?9?9*9?9*9*9?9*9,28.10,22.40,72,95416,448,1323,411,264,394,105,27702,37441,11493,7346,252,0.2,6,6,8333.0,813,9,999999999,86,0.2200,0,88,0.160,0.0,0.0
2016,7,21,17,20,?9?9?9?9E0?9?9?9*9*9?9?9?9?9?9?9*9?9*9*9?9*9,28.10,22.40,72,95416,448,1323,411,261,391,105,27702,37441,11493,7346,252,0.2,6,6,8333.0,813,9,999999999,86,0.2200,0,88,0.160,0.0,0.0
2016,7,21,17,21,?9?9?9?9E0?9?9?9*9*9?9?9?9?9?9?9*9?9*9*9?9*9,28.10,22.40,72,95416,448,1323,411,258,387,105,27702,37441,11493,7346,252,0.2,6,6,8333.0,813,9,999999999,86,0.2200,0,88,0.160,0.0,0.0
2016,7,21,17,22,?9?9?9?9E0?9?9?9*9*9?9?9?9?9?9?9*9?9*9*9?9*9,28.10,22.40,72,95416,448,1323,411,255,383,105,27702,37441,11493,7346,252,0.2,6,6,8333.0,813,9,999999999,86,0.2200,0,88,0.160,0.0,0.0
2016,7,21,17,23,?9?9?9?9E0?9?9?9*9*9?9?9?9?9?9?9*9?9*9*9?9*9,28.10,22.40,72,95416,448,1323,411,252,379,105,27702,37441,11493,7346,252,0.2,6,6,8333.0,813,9,999999999,86,0.2200,0,88,0.160,0.0,0.0
2016,7,21,17,24,?9?9?9?9E0?9?9?9*9*9?9?9?9?9?9?9*9?9*9*9?9*9,28.10,22.40,72,95416,448,1323,411,248,375,105,27702,37441,11493,7346,252,0.2,6,6,8333.0,813,9,999999999,86,0.2200,0,88,0.160,0.0,0.0
2016,7,21,17,25,?9?9?9?9E0?9?9?9*9*9?9?9?9?9?9?9*9?9*9*9?9*9,28.10,22.40,72,95416,448,1323,411,245,371,105,27702,37441,11493,7346,252,0.2,6,6,8333.0,813,9,999999999,86,0.2200,0,88,0.160,0.0,0.0
2016,7,21,17,26,?9?9?9?9E0?9?9?9*9*9?9?9?9?9?9?9*9?9*9*9?9*9,28.10,22.40,72,95416,448,1323,411,242,367,105,27702,37441,11493,7346,252,0.2,6,6,8333.0,813,9,999999999,86,0.2200,0,88,0.160,0.0,0.0
2016,7,21,17,27,?9?9?9?9E0?9?9?9*9*9?9?9?9?9?9?9*9?9*9*9?9*9,28.10,22.40,72,95416,448,1323,411,238,363,105,27702,37441,11493,7346,252,0.2,6,6,8333.0,813,9,999999999,86,0.2200,0,88,0.160,0.0,0.0
2016,7,21,17,28,?9?9?9?9E0?9?9?9*9*9?9?9?9?9?9?9*9?9*9*9?9*9,28.10,22.40,72,95416,448,1323,411,235,360,105,27702,37441,11493,7346,252,0.2,6,6,8333.0,813,9,999999999,86,0.2200,0,88,0.160,0.0,0.0
2016,7,21,17,29,?9?9?9?9E0?9?9?9*9*9?9?9?9?9?9?9*9?9*9*9?9*9,28.10,22.40,72,95416,448,1323,411,232,356,105,27702,37441,11493,7346,252,0.2,6,6,8333.0,813,9,999999999,86,0.2200,0,88,0.160,0.0,0.0
2016,7,21,17,30,?9?9?9?9E0?9?9?9*9*9?9?9?9?9?9?9*9?9*9*9?9*9,28.10,22.40,72,95416,448,1323,411,229,352,105,27702,37441,11493,7346,252,0.2,6,6,8333.0,813,9,999999999,86,0.2200,0,88,0.160,0.0,0.0
2016,7,21,17,31,?9?9?9?9E0?9?9?9*9*9?9?9?9?9?9?9*9?9*9*9?9*9,28.10,22.40,72,95416,448,1323,411,226,348,105,27702,37441,11493,7346,252,0.1,6,6,8333.0,813,9,999999999,86,0.2200,0,88,0.160,0.0,0.0
2016,7,21,17,32,?9?9?9?9E0?9?9?9*9*9?9?9?9?9?9?9*9?9*9*9?9*9,28.10,22.40,72,95416,448,1323,411,222,344,105,27702,37441,11493,7346,252,0.1,6,6,8333.0,813,9,999999999,86,0.2200,0,88,0.160,0.0,0.0
2016,7,21,17,33,?9?9?9?9E0?9?9?9*9*9?9?9?9?9?9?9*9?9*9*9?9*9,28.10,22.40,72,95416,448,1323,411,219,340,105,27702,37441,11493,7346,252,0.1,6,6,8333.0,813,9,999999999,86,0.2200,0,88,0.160,0.0,0.0
2016,7,21,17,34,?9?9?9?9E0?9?9?9*9*9?9?9?9?9?9?9*9?9*9*9?9*9,28.10,22.40,72,95416,448,1323,411,216,336,105,27702,37441,11493,7346,252,0.1,6,6,8333.0,813,9,999999999,86,0.2200,0,88,0.160,0.0,0.0
2016,7,21,17,35,?9?9?9?9E0?9?9?9*9*9?9?9?9?9?9?9*9?9*9*9?9*9,28.10,22.40,72,95416,448,1323,411,212,333,105,27702,37441,11493,7346,252,0.1,6,6,8333.0,813,9,999999999,86,0.2200,0,88,0.160,0.0,0.0
2016,7,21,17,36,?9?9?9?9E0?9?9?9*9*9?9?9?9?9?9?9*9?9*9*9?9*9,28.10,22.40,72,95416,448,1323,411,209,329,105,27702,37441,11493,7346,252,0.1,6,6,8333.0,813,9,999999999,86,0.2200,0,88,0.160,0.0,0.0
2016,7,21,17,37,?9?9?9?9E0?9?9?9*9*9?9?9?9?9?9?9*9?9*9*9?9*9,28.10,22.40,72,95416,448,1323,411,206,325,105,27702,37441,11493,7346,252,0.1,6,6,8333.0,813,9,999999999,86,0.2200,0,88,0.160,0.0,0.0
2016,7,21,17,38,?9?9?9?9E0?9?9?9*9*9?9?9?9?9?9?9*9?9*9*9?9*9,28.10,22.40,72,95416,448,1323,411,203,321,105,27702,37441,11493,7346,252,0.1,6,6,8333.0,813,9,999999999,86,0.2200,0,88,0.160,0.0,0.0
2016,7,21,17,39,?9?9?9?9E0?9?9?9*9*9?9?9?9?9?9?9*9?9*9*9?9*9,28.10,22.40,72,95416,448,1323,411,200,317,105,27702,37441,11493,7346,252,0.1,6,6,8333.0,813,9,999999999,86,0.2200,0,88,0.160,0.0,0.0
2016,7,21,17,40,?9?9?9?9E0?9?9?9*9*9?9?9?9?9?9?9*9?9*9*9?9*9,28.10,22.40,72,95416,448,1323,411,196,313,105,27702,37441,11493,7346,252,0.1,6,6,8333.0,813,9,999999999,86,0.2200,0,88,0.160,0.0,0.0
2016,7,21,17,41,?9?9?9?9E0?9?9?9*9*9?9?9?9?9?9?9*9?9*9*9?9*9,28.10,22.40,72,95416,448,1323,411,193,309,105,27702,37441,11493,7346,252,0.1,6,6,8333.0,813,9,999999999,86,0.2200,0,88,0.160,0.0,0.0
2016,7,21,17,42,?9?9?9?9E0?9?9?9*9*9?9?9?9?9?9?9*9?9*9*9?9*9,28.10,22.40,72,95416,448,1323,411,190,305,105,27702,37441,11493,7346,252,0.1,6,6,8333.0,813,9,999999999,86,0.2200,0,88,0.160,0.0,0.0
2016,7,21,17,43,?9?9?9?9E0?9?9?9*9*9?9?9?9?9?9?9*9?9*9*9?9*9,28.10,22.40,72,95416,448,1323,411,186,302,105,27702,37441,11493,7346,252,0.1,6,6,8333.0,813,9,999999999,86,0.2200,0,88,0.160,0.0,0.0
2016,7,21,17,44,?9?9?9?9E0?9?9?9*9*9?9?9?9?9?9?9*9?9*9*9?9*9,28.10,22.40,72,95416,448,1323,411,183,298,105,27702,37441,11493,7346,252,0.1,6,6,8333.0,813,9,999999999,86,0.2200,0,88,0.160,0.0,0.0
2016,7,21,17,45,?9?9?9?9E0?9?9?9*9*9?9?9?9?9?9?9*9?9*9*9?9*9,28.10,22.40,72,95416,448,1323,411,180,294,105,27702,37441,11493,7346,252,0.1,6,6,8333.0,813,9,999999999,86,0.2200,0,88,0.160,0.0,0.0
2016,7,21,17,46,?9?9?9?9E0?9?9?9*9*9?9?9?9?9?9?9*9?9*9*9?9*9,28.10,22.40,72,95416,448,1323,411,177,290,105,27702,37441,11493,7346,252,0.1,6,6,8333.0,813,9,999999999,86,0.2200,0,88,0.160,0.0,0.0
2016,7,21,17,47,?9?9?9?9E0?9?9?9*9*9?9?9?9?9?9?9*9?9*9*9?9*9,28.10,22.40,72,95416,448,1323,411,174,286,105,27702,37441,11493,7346,252,0.1,6,6,8333.0,813,9,999999999,86,0.2200,0,88,0.160,0.0,0.0
2016,7,21,17,48,?9?9?9?9E0?9?9?9*9*9?9?9?9?9?9?9*9?9*9*9?9*9,28.10,22.40,72,95416,448,1323,411,170,282,105,27702,37441,11493,7346,252,0.1,6,6,8333.0,813,9,999999999,86,0.2200,0,88,0.160,0.0,0.0
2016,7,21,17,49,?9?9?9?9E0?9?9?9*9*9?9?9?9?9?9?9*9?9*9*9?9*9,28.10,22.40,72,95416,448,1323,411,167,278,105,27702,37441,11493,7346,252,0.1,6,6,8333.0,813,9,999999999,86,0.2200,0,88,0.160,0.0,0.0
2016,7,21,17,50,?9?9?9?9E0?9?9?9*9*9?9?9?9?9?9?9*9?9*9*9?9*9,28.10,22.40,72,95416,448,1323,411,164,275,105,27702,37441,11493,7346,252,0.1,6,6,8333.0,813,9,999999999,86,0.2200,0,88,0.160,0.0,0.0
2016,7,21,17,51,?9?9?9?9E0?9?9?9*9*9?9?9?9?9?9?9*9?9*9*9?9*9,28.10,22.40,72,95416,448,1323,411,160,271,105,27702,37441,11493,7346,252,0.0,6,6,8333.0,813,9,999999999,86,0.2200,0,88,0.160,0.0,0.0
2016,7,21,17,52,?9?9?9?9E0?9?9?9*9*9?9?9?9?9?9?9*9?9*9*9?9*9,28.10,22.40,72,95416,448,1323,411,157,267,105,27702,37441,11493,7346,252,0.0,6,6,8333.0,813,9,999999999,86,0.2200,0,88,0.160,0.0,0.0
2016,7,21,17,53,?9?9?9?9E0?9?9?9*9*9?9?9?9?9?9?9*9?9*9*9?9*9,28.10,22.40,72,95416,448,1323,411,154,263,105,27702,37441,11493,7346,252,0.0,6,6,8333.0,813,9,999999999,86,0.2200,0,88,0.160,0.0,0.0
2016,7,21,17,54,?9?9?9?9E0?9?9?9*9*9?9?9?9?9?9?9*9?9*9*9?9*9,28.10,22.40,72,95416,448,1323,411,151,259,105,27702,37441,11493,7346,252,0.0,6,6,8333.0,813,9,999999999,86,0.2200,0,88,0.160,0.0,0.0
2016,7,21,17,55,?9?9?9?9E0?9?9?9*9*9?9?9?9?9?9?9*9?9*9*9?9*9,28.10,22.40,72,95416,448,1323,411,148,255,105,27702,37441,11493,7346,252,0.0,6,6,8333.0,813,9,999999999,86,0.2200,0,88,0.160,0.0,0.0
2016,7,21,17,56,?9?9?9?9E0?9?9?9*9*9?9?9?9?9?9?9*9?9*9*9?9*9,28.10,22.40,72,95416,448,1323,411,144,251,105,27702,37441,11493,7346,252,0.0,6,6,8333.0,813,9,999999999,86,0.2200,0,88,0.160,0.0,0.0
2016,7,21,17,57,?9?9?9?9E0?9?9?9*9*9?9?9?9?9?9?9*9?9*9*9?9*9,28.10,22.40,72,95416,448,1323,411,141,247,105,27702,37441,11493,7346,252,0.0,6,6,8333.0,813,9,999999999,86,0.2200,0,88,0.160,0.0,0.0
2016,7,21,17,58,?9?9?9?9E0?9?9?9*9*9?9?9?9?9?9?9*9?9*9*9?9*9,28.10,22.40,72,95416,448,1323,411,138,244,105,27702,37441,11493,7346,252,0.0,6,6,8333.0,813,9,999999999,86,0.2200,0,88,0.160,0.0,0.0
2016,7,21,17,59,?9?9?9?9E0?9?9?9*9*9?9?9?9?9?9?9*9?9*9*9?9*9,28.10,22.40,72,95416,448,1323,411,134,240,105,27702,37441,11493,7346,252,0.0,6,6,8333.0,813,9,999999999,86,0.2200,0,88,0.160,0.0,0.0
2016,7,21,17,60,?9?9?9?9E0?9?9?9*9*9?9?9?9?9?9?9*9?9*9*9?9*9,28.10,22.40,72,95416,448,1323,411,131,236,105,27702,37441,11493,7346,252,0.0,6,6,8333.0,813,9,999999999,86,0.2200,0,88,0.160,0.0,0.0
2016,7,21,18,1,?9?9?9?9E0?9?9?9?9?9?9?9?9?9?9?9*9?9*9*9?9*9,27.40,22.50,75,95401,133,1323,413,128,232,59,9496,14742,5584,5094,247,0.0,9,9,8333.0,8400,9,999999999,86,0.2200,0,88,0.160,0.0,0.0
2016,7,21,18,2,?9?9?9?9E0?9?9?9?9?9?9?9?9?9?9?9*9?9*9*9?9*9,27.40,22.50,75,95401,133,1323,413,126,228,59,9496,14742,5584,5094,247,0.0,9,9,8333.0,8400,9,999999999,86,0.2200,0,88,0.160,0.0,0.0
2016,7,21,18,3,?9?9?9?9E0?9?9?9?9?9?9?9?9?9?9?9*9?9*9*9?9*9,27.40,22.50,75,95401,133,1323,413,124,224,59,9496,14742,5584,5094,247,0.0,9,9,8333.0,8400,9,999999999,86,0.2200,0,88,0.160,0.0,0.0
2016,7,21,18,4,?9?9?9?9E0?9?9?9?9?9?9?9?9?9?9?9*9?9*9*9?9*9,27.40,22.50,75,95401,133,1323,413,123,220,59,9496,14742,5584,5094,247,0.0,9,9,8333.0,8400,9,999999999,86,0.2200,0,88,0.160,0.0,0.0
2016,7,21,18,5,?9?9?9?9E0?9?9?9?9?9?9?9?9?9?9?9*9?9*9*9?9*9,27.40,22.50,75,95401,133,1323,413,121,217,59,9496,14742,5584,5094,247,0.0,9,9,8333.0,8400,9,999999999,86,0.2200,0,88,0.160,0.0,0.0
2016,7,21,18,6,?9?9?9?9E0?9?9?9?9?9?9?9?9?9?9?9*9?9*9*9?9*9,27.40,22.50,75,95401,133,1323,413,119,213,59,9496,14742,5584,5094,247,0.0,9,9,8333.0,8400,9,999999999,86,0.2200,0,88,0.160,0.0,0.0
2016,7,21,18,7,?9?9?9?9E0?9?9?9?9?9?9?9?9?9?9?9*9?9*9*9?9*9,27.40,22.50,75,95401,133,1323,413,117,209,59,9496,14742,5584,5094,247,0.0,9,9,8333.0,8400,9,999999999,86,0.2200,0,88,0.160,0.0,0.0
2016,7,21,18,8,?9?9?9?9E0?9?9?9?9?9?9?9?9?9?9?9*9?9*9*9?9*9,27.40,22.50,75,95401,133,1323,413,115,205,59,9496,14742,5584,5094,247,0.0,9,9,8333.0,8400,9,999999999,86,0.2200,0,88,0.160,0.0,0.0
2016,7,21,18,9,?9?9?9?9E0?9?9?9?9?9?9?9?9?9?9?9*9?9*9*9?9*9,27.40,22.50,75,95401,133,1323,413,114,201,59,9496,14742,5584,5094,247,0.0,9,9,8333.0,8400,9,999999999,86,0.2200,0,88,0.160,0.0,0.0
2016,7,21,18,10,?9?9?9?9E0?9?9?9?9?9?9?9?9?9?9?9*9?9*9*9?9*9,27.40,22.50,75,95401,133,1323,413,112,197,59,9496,14742,5584,5094,247,0.0,9,9,8333.0,8400,9,999999999,86,0.2200,0,88,0.160,0.0,0.0
2016,7,21,18,11,?9?9?9?9E0?9?9?9?9?9?9?9?9?9?9?9*9?9*9*9?9*9,27.40,22.50,75,95401,133,1323,413,110,193,59,9496,14742,5584,5094,247,0.0,9,9,8333.0,8400,9,999999999,86,0.2200,0,88,0.160,0.0,0.0
2016,7,21,18,12,?9?9?9?9E0?9?9?9?9?9?9?9?9?9?9?9*9?9*9*9?9*9,27.40,22.50,75,95401,133,1323,413,108,189,59,9496,14742,5584,5094,247,0.0,9,9,8333.0,8400,9,999999999,86,0.2200,0,88,0.160,0.0,0.0
2016,7,21,18,13,?9?9?9?9E0?9?9?9?9?9?9?9?9?9?9?9*9?9*9*9?9*9,27.40,22.50,75,95401,133,1323,413,106,186,59,9496,14742,5584,5094,247,0.0,9,9,8333.0,8400,9,999999999,86,0.2200,0,88,0.160,0.0,0.0
2016,7,21,18,14,?9?9?9?9E0?9?9?9?9?9?9?9?9?9?9?9*9?9*9*9?9*9,27.40,22.50,75,95401,133,1323,413,105,182,59,9496,14742,5584,5094,247,0.0,9,9,8333.0,8400,9,999999999,86,0.2200,0,88,0.160,0.0,0.0
2016,7,21,18,15,?9?9?9?9E0?9?9?9?9?9?9?9?9?9?9?9*9?9*9*9?9*9,27.40,22.50,75,95401,133,1323,413,103,178,59,9496,14742,5584,5094,247,0.0,9,9,8333.0,8400,9,999999999,86,0.2200,0,88,0.160,0.0,0.0
2016,7,21,18,16,?9?9?9?9E0?9?9?9?9?9?9?9?9?9?9?9*9?9*9*9?9*9,27.40,22.50,75,95401,133,1323,413,101,174,59,9496,14742,5584,5094,247,0.0,9,9,8333.0,8400,9,999999999,86,0.2200,0,88,0.160,0.0,0.0
2016,7,21,18,17,?9?9?9?9E0?9?9?9?9?9?9?9?9?9?9?9*9?9*9*9?9*9,27.40,22.50,75,95401,133,1323,413,99,170,59,9496,14742,5584,5094,247,0.0,9,9,8333.0,8400,9,999999999,86,0.2200,0,88,0.160,0.0,0.0
2016,7,21,18,18,?9?9?9?9E0?9?9?9?9?9?9?9?9?9?9?9*9?9*9*9?9*9,27.40,22.50,75,95401,133,1323,413,97,166,59,9496,14742,5584,5094,247,0.0,9,9,8333.0,8400,9,999999999,86,0.2200,0,88,0.160,0.0,0.0
2016,7,21,18,19,?9?9?9?9E0?9?9?9?9?9?9?9?9?9?9?9*9?9*9*9?9*9,27.40,22.50,75,95401,133,1323,413,96,162,59,9496,14742,5584,5094,247,0.0,9,9,8333.0,8400,9,999999999,86,0.2200,0,88,0.160,0.0,0.0
2016,7,21,18,20,?9?9?9?9E0?9?9?9?9?9?9?9?9?9?9?9*9?9*9*9?9*9,27.40,22.50,75,95401,133,1323,413,94,159,59,9496,14742,5584,5094,247,0.0,9,9,8333.0,8400,9,999999999,86,0.2200,0,88,0.160,0.0,0.0
2016,7,21,18,21,?9?9?9?9E0?9?9?9?9?9?9?9?9?9?9?9*9?9*9*9?9*9,27.40,22.50,75,95401,133,1323,413,92,155,59,9496,14742,5584,5094,247,0.0,9,9,8333.0,8400,9,999999999,86,0.2200,0,88,0.160,0.0,0.0
2016,7,21,18,22,?9?9?9?9E0?9?9?9?9?9?9?9?9?9?9?9*9?9*9*9?9*9,27.40,22.50,75,95401,133,1323,413,90,151,59,9496,14742,5584,5094,247,0.0,9,9,8333.0,8400,9,999999999,86,0.2200,0,88,0.160,0.0,0.0
2016,7,21,18,23,?9?9?9?9E0?9?9?9?9?9?9?9?9?9?9?9*9?9*9*9?9*9,27.40,22.50,75,95401,133,1323,413,88,147,59,9496,14742,5584,5094,247,0.0,9,9,8333.0,8400,9,999999999,86,0.2200,0,88,0.160,0.0,0.0
2016,7,21,18,24,?9?9?9?9E0?9?9?9?9?9?9?9?9?9?9?9*9?9*9*9?9*9,27.40,22.50,75,95401,133,1323,413,87,143,59,9496,14742,5584,5094,247,0.0,9,9,8333.0,8400,9,999999999,86,0.2200,0,88,0.160,0.0,0.0
2016,7,21,18,25,?9?9?9?9E0?9?9?9?9?9?9?9?9?9?9?9*9?9*9*9?9*9,27.40,22.50,75,95401,133,1323,413,85,139,59,9496,14742,5584,5094,247,0.0,9,9,8333.0,8400,9,999999999,86,0.2200,0,88,0.160,0.0,0.0
2016,7,21,18,26,?9?9?9?9E0?9?9?9?9?9?9?9?9?9?9?9*9?9*9*9?9*9,27.40,22.50,75,95401,133,1323,413,83,135,59,9496,14742,5584,5094,247,0.0,9,9,8333.0,8400,9,999999999,86,0.2200,0,88,0.160,0.0,0.0
2016,7,21,18,27,?9?9?9?9E0?9?9?9?9?9?9?9?9?9?9?9*9?9*9*9?9*9,27.40,22.50,75,95401,133,1323,413,81,131,59,9496,14742,5584,5094,247,0.0,9,9,8333.0,8400,9,999999999,86,0.2200,0,88,0.160,0.0,0.0
2016,7,21,18,28,?9?9?9?9E0?9?9?9?9?9?9?9?9?9?9?9*9?9*9*9?9*9,27.40,22.50,75,95401,133,1323,413,79,128,59,9496,14742,5584,5094,247,0.0,9,9,8333.0,8400,9,999999999,86,0.2200,0,88,0.160,0.0,0.0
2016,7,21,18,29,?9?9?9?9E0?9?9?9?9?9?9?9?9?9?9?9*9?9*9*9?9*9,27.40,22.50,75,95401,133,1323,413,78,124,59,9496,14742,5584,5094,247,0.0,9,9,8333.0,8400,9,999999999,86,0.2200,0,88,0.160,0.0,0.0
2016,7,21,18,30,?9?9?9?9E0?9?9?9?9?9?9?9?9?9?9?9*9?9*9*9?9*9,27.40,22.50,75,95401,133,1323,413,76,120,59,9496,14742,5584,5094,247,0.0,9,9,8333.0,8400,9,999999999,86,0.2200,0,88,0.160,0.0,0.0
2016,7,21,18,31,?9?9?9?9E0?9?9?9?9?9?9?9?9?9?9?9*9?9*9*9?9*9,27.40,22.50,75,95401,133,1323,413,74,116,59,9496,14742,5584,5094,247,0.0,9,9,8333.0,8400,9,999999999,86,0.2200,0,88,0.160,0.0,0.0
2016,7,21,18,32,?9?9?9?9E0?9?9?9?9?9?9?9?9?9?9?9*9?9*9*9?9*9,27.40,22.50,75,95401,133,1323,413,72,112,59,9496,14742,5584,5094,247,0.0,9,9,8333.0,8400,9,999999999,86,0.2200,0,88,0.160,0.0,0.0
2016,7,21,18,33,?9?9?9?9E0?9?9?9?9?9?9?9?9?9?9?9*9?9*9*9?9*9,27.40,22.50,75,95401,133,1323,413,70,108,59,9496,14742,5584,5094,247,0.0,9,9,8333.0,8400,9,999999999,86,0.2200,0,88,0.160,0.0,0.0
2016,7,21,18,34,?9?9?9?9E0?9?9?9?9?9?9?9?9?9?9?9*9?9*9*9?9*9,27.40,22.50,75,95401,133,1323,413,69,104,59,9496,14742,5584,5094,247,0.0,9,9,8333.0,8400,9,999999999,86,0.2200,0,88,0.160,0.0,0.0
2016,7,21,18,35,?9?9?9?9E0?9?9?9?9?9?9?9?9?9?9?9*9?9*9*9?9*9,27.40,22.50,75,95401,133,1323,413,67,101,59,9496,14742,5584,5094,247,0.0,9,9,8333.0,8400,9,999999999,86,0.2200,0,88,0.160,0.0,0.0
2016,7,21,18,36,?9?9?9?9E0?9?9?9?9?9?9?9?9?9?9?9*9?9*9*9?9*9,27.40,22.50,75,95401,133,1323,413,65,97,59,9496,14742,5584,5094,247,0.0,9,9,8333.0,8400,9,999999999,86,0.2200,0,88,0.160,0.0,0.0
2016,7,21,18,37,?9?9?9?9E0?9?9?9?9?9?9?9?9?9?9?9*9?9*9*9?9*9,27.40,22.50,75,95401,133,1323,413,63,93,59,9496,14742,5584,5094,247,0.0,9,9,8333.0,8400,9,999999999,86,0.2200,0,88,0.160,0.0,0.0
2016,7,21,18,38,?9?9?9?9E0?9?9?9?9?9?9?9?9?9?9?9*9?9*9*9?9*9,27.40,22.50,75,95401,133,1323,413,61,89,59,9496,14742,5584,5094,247,0.0,9,9,8333.0,8400,9,999999999,86,0.2200,0,88,0.160,0.0,0.0
2016,7,21,18,39,?9?9?9?9E0?9?9?9?9?9?9?9?9?9?9?9*9?9*9*9?9*9,27.40,22.50,75,95401,133,1323,413,60,85,59,9496,14742,5584,5094,247,0.0,9,9,8333.0,8400,9,999999999,86,0.2200,0,88,0.160,0.0,0.0
2016,7,21,18,40,?9?9?9?9E0?9?9?9?9?9?9?9?9?9?9?9*9?9*9*9?9*9,27.40,22.50,75,95401,133,1323,413,58,81,59,9496,14742,5584,5094,247,0.0,9,9,8333.0,8400,9,999999999,86,0.2200,0,88,0.160,0.0,0.0
2016,7,21,18,41,?9?9?9?9E0?9?9?9?9?9?9?9?9?9?9?9*9?9*9*9?9*9,27.40,22.50,75,95401,133,1323,413,56,77,59,9496,14742,5584,5094,247,0.0,9,9,8333.0,8400,9,999999999,86,0.2200,0,88,0.160,0.0,0.0
2016,7,21,18,42,?9?9?9?9E0?9?9?9?9?9?9?9?9?9?9?9*9?9*9*9?9*9,27.40,22.50,75,95401,133,1323,413,54,73,59,9496,14742,5584,5094,247,0.0,9,9,8333.0,8400,9,999999999,86,0.2200,0,88,0.160,0.0,0.0
2016,7,21,18,43,?9?9?9?9E0?9?9?9?9?9?9?9?9?9?9?9*9?9*9*9?9*9,27.40,22.50,75,95401,133,1323,413,52,70,59,9496,14742,5584,5094,247,0.0,9,9,8333.0,8400,9,999999999,86,0.2200,0,88,0.160,0.0,0.0
2016,7,21,18,44,?9?9?9?9E0?9?9?9?9?9?9?9?9?9?9?9*9?9*9*9?9*9,27.40,22.50,75,95401,133,1323,413,51,66,59,9496,14742,5584,5094,247,0.0,9,9,8333.0,8400,9,999999999,86,0.2200,0,88,0.160,0.0,0.0
2016,7,21,18,45,?9?9?9?9E0?9?9?9?9?9?9?9?9?9?9?9*9?9*9*9?9*9,27.40,22.50,75,95401,133,1323,413,49,62,59,9496,14742,5584,5094,247,0.0,9,9,8333.0,8400,9,999999999,86,0.2200,0,88,0.160,0.0,0.0
2016,7,21,18,46,?9?9?9?9E0?9?9?9?9?9?9?9?9?9?9?9*9?9*9*9?9*9,27.40,22.50,75,95401,133,1323,413,47,58,59,9496,14742,5584,5094,247,0.0,9,9,8333.0,8400,9,999999999,86,0.2200,0,88,0.160,0.0,0.0
2016,7,21,18,47,?9?9?9?9E0?9?9?9?9?9?9?9?9?9?9?9*9?9*9*9?9*9,27.40,22.50,75,95401,133,1323,413,45,54,59,9496,14742,5584,5094,247,0.0,9,9,8333.0,8400,9,999999999,86,0.2200,0,88,0.160,0.0,0.0
2016,7,21,18,48,?9?9?9?9E0?9?9?9?9?9?9?9?9?9?9?9*9?9*9*9?9*9,27.40,22.50,75,95401,133,1323,413,43,50,59,9496,14742,5584,5094,247,0.0,9,9,8333.0,8400,9,999999999,86,0.2200,0,88,0.160,0.0,0.0
2016,7,21,18,49,?9?9?9?9E0?9?9?9?9?9?9?9?9?9?9?9*9?9*9*9?9*9,27.40,22.50,75,95401,133,1323,413,42,46,59,9496,14742,5584,5094,247,0.0,9,9,8333.0,8400,9,999999999,86,0.2200,0,88,0.160,0.0,0.0
2016,7,21,18,50,?9?9?9?9E0?9?9?9?9?9?9?9?9?9?9?9*9?9*9*9?9*9,27.40,22.50,75,95401,133,1323,413,40,43,59,9496,14742,5584,5094,247,0.0,9,9,8333.0,8400,9,999999999,86,0.2200,0,88,0.160,0.0,0.0
2016,7,21,18,51,?9?9?9?9E0?9?9?9?9?9?9?9?9?9?9?9*9?9*9*9?9*9,27.40,22.50,75,95401,133,1323,413,38,39,59,9496,14742,5584,5094,247,0.0,9,9,8333.0,8400,9,999999999,86,0.2200,0,88,0.160,0.0,0.0
2016,7,21,18,52,?9?9?9?9E0?9?9?9?9?9?9?9?9?9?9?9*9?9*9*9?9*9,27.40,22.50,75,95401,133,1323,413,36,35,59,9496,14742,5584,5094,247,0.0,9,9,8333.0,8400,9,999999999,86,0.2200,0,88,0.160,0.0,0.0
2016,7,21,18,53,?9?9?9?9E0?9?9?9?9?9?9?9?9?9?9?9*9?9*9*9?9*9,27.40,22.50,75,95401,133,1323,413,34,31,59,9496,14742,5584,5094,247,0.0,9,9,8333.0,8400,9,999999999,86,0.2200,0,88,0.160,0.0,0.0
2016,7,21,18,54,?9?9?9?9E0?9?9?9?9?9?9?9?9?9?9?9*9?9*9*9?9*9,27.40,22.50,75,95401,133,1323,413,33,27,59,9496,14742,5584,5094,247,0.0,9,9,8333.0,8400,9,999999999,86,0.2200,0,88,0.160,0.0,0.0
2016,7,21,18,55,?9?9?9?9E0?9?9?9?9?9?9?9?9?9?9?9*9?9*9*9?9*9,27.40,22.50,75,95401,133,1323,413,31,23,59,9496,14742,5584,5094,247,0.0,9,9,8333.0,8400,9,999999999,86,0.2200,0,88,0.160,0.0,0.0
2016,7,21,18,56,?9?9?9?9E0?9?9?9?9?9?9?9?9?9?9?9*9?9*9*9?9*9,27.40,22.50,75,95401,133,1323,413,29,19,59,9496,14742,5584,5094,247,0.0,9,9,8333.0,8400,9,999999999,86,0.2200,0,88,0.160,0.0,0.0
2016,7,21,18,57,?9?9?9?9E0?9?9?9?9?9?9?9?9?9?9?9*9?9*9*9?9*9,27.40,22.50,75,95401,133,1323,413,27,15,59,9496,14742,5584,5094,247,0.0,9,9,8333.0,8400,9,999999999,86,0.2200,0,88,0.160,0.0,0.0
2016,7,21,18,58,?9?9?9?9E0?9?9?9?9?9?9?9?9?9?9?9*9?9*9*9?9*9,27.40,22.50,75,95401,133,1323,413,25,12,59,9496,14742,5584,5094,247,0.0,9,9,8333.0,8400,9,999999999,86,0.2200,0,88,0.160,0.0,0.0
2016,7,21,18,59,?9?9?9?9E0?9?9?9?9?9?9?9?9?9?9?9*9?9*9*9?9*9,27.40,22.50,75,95401,133,1323,413,24,8,59,9496,14742,5584,5094,247,0.0,9,9,8333.0,8400,9,999999999,86,0.2200,0,88,0.160,0.0,0.0
2016,7,21,18,60,?9?9?9?9E0?9?9?9?9?9?9?9?9?9?9?9*9?9*9*9?9*9,27.40,22.50,75,95401,133,1323,413,22,4,59,9496,14742,5584,5094,247,0.0,9,9,8333.0,8400,9,999999999,86,0.2200,0,88,0.160,0.0,0.0
2016,7,21,19,1,?9?9?9?9E0?9?9?9*9*9?9?9?9?9?9?9*9?9*9*9?9*9,26.50,22.50,79,95427,0,551,410,20,0,16,1336,2125,1336,1318,243,0.0,7,7,8333.0,1014,9,999999999,87,0.2200,0,88,0.160,0.0,0.0
2016,7,21,19,2,?9?9?9?9E0?9?9?9*9*9?9?9?9?9?9?9*9?9*9*9?9*9,26.50,22.50,79,95427,0,551,410,20,0,16,1336,2125,1336,1318,243,0.0,7,7,8333.0,1014,9,999999999,87,0.2200,0,88,0.160,0.0,0.0
2016,7,21,19,3,?9?9?9?9E0?9?9?9*9*9?9?9?9?9?9?9*9?9*9*9?9*9,26.50,22.50,79,95427,0,551,410,19,0,16,1336,2125,1336,1318,243,0.0,7,7,8333.0,1014,9,999999999,87,0.2200,0,88,0.160,0.0,0.0
2016,7,21,19,4,?9?9?9?9E0?9?9?9*9*9?9?9?9?9?9?9*9?9*9*9?9*9,26.50,22.50,79,95427,0,551,410,19,0,16,1336,2125,1336,1318,243,0.0,7,7,8333.0,1014,9,999999999,87,0.2200,0,88,0.160,0.0,0.0
2016,7,21,19,5,?9?9?9?9E0?9?9?9*9*9?9?9?9?9?9?9*9?9*9*9?9*9,26.50,22.50,79,95427,0,551,410,19,0,16,1336,2125,1336,1318,243,0.0,7,7,8333.0,1014,9,999999999,87,0.2200,0,88,0.160,0.0,0.0
2016,7,21,19,6,?9?9?9?9E0?9?9?9*9*9?9?9?9?9?9?9*9?9*9*9?9*9,26.50,22.50,79,95427,0,551,410,18,0,16,1336,2125,1336,1318,243,0.0,7,7,8333.0,1014,9,999999999,87,0.2200,0,88,0.160,0.0,0.0
2016,7,21,19,7,?9?9?9?9E0?9?9?9*9*9?9?9?9?9?9?9*9?9*9*9?9*9,26.50,22.50,79,95427,0,551,410,18,0,16,1336,2125,1336,1318,243,0.0,7,7,8333.0,1014,9,999999999,87,0.2200,0,88,0.160,0.0,0.0
2016,7,21,19,8,?9?9?9?9E0?9?9?9*9*9?9?9?9?9?9?9*9?9*9*9?9*9,26.50,22.50,79,95427,0,551,410,18,0,16,1336,2125,1336,1318,243,0.0,7,7,8333.0,1014,9,999999999,87,0.2200,0,88,0.160,0.0,0.0
2016,7,21,19,9,?9?9?9?9E0?9?9?9*9*9?9?9?9?9?9?9*9?9*9*9?9*9,26.50,22.50,79,95427,0,551,410,17,0,16,1336,2125,1336,1318,243,0.0,7,7,8333.0,1014,9,999999999,87,0.2200,0,88,0.160,0.0,0.0
2016,7,21,19,10,?9?9?9?9E0?9?9?9*9*9?9?9?9?9?9?9*9?9*9*9?9*9,26.50,22.50,79,95427,0,551,410,17,0,16,1336,2125,1336,1318,243,0.0,7,7,8333.0,1014,9,999999999,87,0.2200,0,88,0.160,0.0,0.0
2016,7,21,19,11,?9?9?9?9E0?9?9?9*9*9?9?9?9?9?9?9*9?9*9*9?9*9,26.50,22.50,79,95427,0,551,410,17,0,16,1336,2125,1336,1318,243,0.0,7,7,8333.0,1014,9,999999999,87,0.2200,0,88,0.160,0.0,0.0
2016,7,21,19,12,?9?9?9?9E0?9?9?9*9*9?9?9?9?9?9?9*9?9*9*9?9*9,26.50,22.50,79,95427,0,551,410,16,0,16,1336,2125,1336,1318,243,0.0,7,7,8333.0,1014,9,999999999,87,0.2200,0,88,0.160,0.0,0.0
2016,7,21,19,13,?9?9?9?9E0?9?9?9*9*9?9?9?9?9?9?9*9?9*9*9?9*9,26.50,22.50,79,95427,0,551,410,16,0,16,1336,2125,1336,1318,243,0.0,7,7,8333.0,1014,9,999999999,87,0.2200,0,88,0.160,0.0,0.0
2016,7,21,19,14,?9?9?9?9E0?9?9?9*9*9?9?9?9?9?9?9*9?9*9*9?9*9,26.50,22.50,79,95427,0,551,410,16,0,16,1336,2125,1336,1318,243,0.0,7,7,8333.0,1014,9,999999999,87,0.2200,0,88,0.160,0.0,0.0
2016,7,21,19,15,?9?9?9?9E0?9?9?9*9*9?9?9?9?9?9?9*9?9*9*9?9*9,26.50,22.50,79,95427,0,551,410,15,0,16,1336,2125,1336,1318,243,0.0,7,7,8333.0,1014,9,999999999,87,0.2200,0,88,0.160,0.0,0.0
2016,7,21,19,16,?9?9?9?9E0?9?9?9*9*9?9?9?9?9?9?9*9?9*9*9?9*9,26.50,22.50,79,95427,0,551,410,15,0,16,1336,2125,1336,1318,243,0.0,7,7,8333.0,1014,9,999999999,87,0.2200,0,88,0.160,0.0,0.0
2016,7,21,19,17,?9?9?9?9E0?9?9?9*9*9?9?9?9?9?9?9*9?9*9*9?9*9,26.50,22.50,79,95427,0,551,410,15,0,16,1336,2125,1336,1318,243,0.0,7,7,8333.0,1014,9,999999999,87,0.2200,0,88,0.160,0.0,0.0
2016,7,21,19,18,?9?9?9?9E0?9?9?9*9*9?9?9?9?9?9?9*9?9*9*9?9*9,26.50,22.50,79,95427,0,551,410,14,0,16,1336,2125,1336,1318,243,0.0,7,7,8333.0,1014,9,999999999,87,0.2200,0,88,0.160,0.0,0.0
2016,7,21,19,19,?9?9?9?9E0?9?9?9*9*9?9?9?9?9?9?9*9?9*9*9?9*9,26.50,22.50,79,95427,0,551,410,14,0,16,1336,2125,1336,1318,243,0.0,7,7,8333.0,1014,9,999999999,87,0.2200,0,88,0.160,0.0,0.0
2016,7,21,19,20,?9?9?9?9E0?9?9?9*9*9?9?9?9?9?9?9*9?9*9*9?9*9,26.50,22.50,79,95427,0,551,410,14,0,16,1336,2125,1336,1318,243,0.0,7,7,8333.0,1014,9,999999999,87,0.2200,0,88,0.160,0.0,0.0
2016,7,21,19,21,?9?9?9?9E0?9?9?9*9*9?9?9?9?9?9?9*9?9*9*9?9*9,26.50,22.50,79,95427,0,551,410,13,0,16,1336,2125,1336,1318,243,0.0,7,7,8333.0,1014,9,999999999,87,0.2200,0,88,0.160,0.0,0.0
2016,7,21,19,22,?9?9?9?9E0?9?9?9*9*9?9?9?9?9?9?9*9?9*9*9?9*9,26.50,22.50,79,95427,0,551,410,13,0,16,1336,2125,1336,1318,243,0.0,7,7,8333.0,1014,9,999999999,87,0.2200,0,88,0.160,0.0,0.0
2016,7,21,19,23,?9?9?9?9E0?9?9?9*9*9?9?9?9?9?9?9*9?9*9*9?9*9,26.50,22.50,79,95427,0,551,410,13,0,16,1336,2125,1336,1318,243,0.0,7,7,8333.0,1014,9,999999999,87,0.2200,0,88,0.160,0.0,0.0
2016,7,21,19,24,?9?9?9?9E0?9?9?9*9*9?9?9?9?9?9?9*9?9*9*9?9*9,26.50,22.50,79,95427,0,551,410,12,0,16,1336,2125,1336,1318,243,0.0,7,7,8333.0,1014,9,999999999,87,0.2200,0,88,0.160,0.0,0.0
2016,7,21,19,25,?9?9?9?9E0?9?9?9*9*9?9?9?9?9?9?9*9?9*9*9?9*9,26.50,22.50,79,95427,0,551,410,12,0,16,1336,2125,1336,1318,243,0.0,7,7,8333.0,1014,9,999999999,87,0.2200,0,88,0.160,0.0,0.0
2016,7,21,19,26,?9?9?9?9E0?9?9?9*9*9?9?9?9?9?9?9*9?9*9*9?9*9,26.50,22.50,79,95427,0,551,410,12,0,16,1336,2125,1336,1318,243,0.0,7,7,8333.0,1014,9,999999999,87,0.2200,0,88,0.160,0.0,0.0
2016,7,21,19,27,?9?9?9?9E0?9?9?9*9*9?9?9?9?9?9?9*9?9*9*9?9*9,26.50,22.50,79,95427,0,551,410,11,0,16,1336,2125,1336,1318,243,0.0,7,7,8333.0,1014,9,999999999,87,0.2200,0,88,0.160,0.0,0.0
2016,7,21,19,28,?9?9?9?9E0?9?9?9*9*9?9?9?9?9?9?9*9?9*9*9?9*9,26.50,22.50,79,95427,0,551,410,11,0,16,1336,2125,1336,1318,243,0.0,7,7,8333.0,1014,9,999999999,87,0.2200,0,88,0.160,0.0,0.0
2016,7,21,19,29,?9?9?9?9E0?9?9?9*9*9?9?9?9?9?9?9*9?9*9*9?9*9,26.50,22.50,79,95427,0,551,410,11,0,16,1336,2125,1336,1318,243,0.0,7,7,8333.0,1014,9,999999999,87,0.2200,0,88,0.160,0.0,0.0
2016,7,21,19,30,?9?9?9?9E0?9?9?9*9*9?9?9?9?9?9?9*9?9*9*9?9*9,26.50,22.50,79,95427,0,551,410,10,0,16,1336,2125,1336,1318,243,0.0,7,7,8333.0,1014,9,999999999,87,0.2200,0,88,0.160,0.0,0.0
2016,7,21,19,31,?9?9?9?9E0?9?9?9*9*9?9?9?9?9?9?9*9?9*9*9?9*9,26.50,22.50,79,95427,0,551,410,10,0,16,1336,2125,1336,1318,243,0.0,7,7,8333.0,1014,9,999999999,87,0.2200,0,88,0.160,0.0,0.0
2016,7,21,19,32,?9?9?9?9E0?9?9?9*9*9?9?9?9?9?9?9*9?9*9*9?9*9,26.50,22.50,79,95427,0,551,410,10,0,16,1336,2125,1336,1318,243,0.0,7,7,8333.0,1014,9,999999999,87,0.2200,0,88,0.160,0.0,0.0
2016,7,21,19,33,?9?9?9?9E0?9?9?9*9*9?9?9?9?9?9?9*9?9*9*9?9*9,26.50,22.50,79,95427,0,551,410,9,0,16,1336,2125,1336,1318,243,0.0,7,7,8333.0,1014,9,999999999,87,0.2200,0,88,0.160,0.0,0.0
2016,7,21,19,34,?9?9?9?9E0?9?9?9*9*9?9?9?9?9?9?9*9?9*9*9?9*9,26.50,22.50,79,95427,0,551,410,9,0,16,1336,2125,1336,1318,243,0.0,7,7,8333.0,1014,9,999999999,87,0.2200,0,88,0.160,0.0,0.0
2016,7,21,19,35,?9?9?9?9E0?9?9?9*9*9?9?9?9?9?9?9*9?9*9*9?9*9,26.50,22.50,79,95427,0,551,410,9,0,16,1336,2125,1336,1318,243,0.0,7,7,8333.0,1014,9,999999999,87,0.2200,0,88,0.160,0.0,0.0
2016,7,21,19,36,?9?9?9?9E0?9?9?9*9*9?9?9?9?9?9?9*9?9*9*9?9*9,26.50,22.50,79,95427,0,551,410,8,0,16,1336,2125,1336,1318,243,0.0,7,7,8333.0,1014,9,999999999,87,0.2200,0,88,0.160,0.0,0.0
2016,7,21,19,37,?9?9?9?9E0?9?9?9*9*9?9?9?9?9?9?9*9?9*9*9?9*9,26.50,22.50,79,95427,0,551,410,8,0,16,1336,2125,1336,1318,243,0.0,7,7,8333.0,1014,9,999999999,87,0.2200,0,88,0.160,0.0,0.0
2016,7,21,19,38,?9?9?9?9E0?9?9?9*9*9?9?9?9?9?9?9*9?9*9*9?9*9,26.50,22.50,79,95427,0,551,410,8,0,16,1336,2125,1336,1318,243,0.0,7,7,8333.0,1014,9,999999999,87,0.2200,0,88,0.160,0.0,0.0
2016,7,21,19,39,?9?9?9?9E0?9?9?9*9*9?9?9?9?9?9?9*9?9*9*9?9*9,26.50,22.50,79,95427,0,551,410,7,0,16,1336,2125,1336,1318,243,0.0,7,7,8333.0,1014,9,999999999,87,0.2200,0,88,0.160,0.0,0.0
2016,7,21,19,40,?9?9?9?9E0?9?9?9*9*9?9?9?9?9?9?9*9?9*9*9?9*9,26.50,22.50,79,95427,0,551,410,7,0,16,1336,2125,1336,1318,243,0.0,7,7,8333.0,1014,9,999999999,87,0.2200,0,88,0.160,0.0,0.0
2016,7,21,19,41,?9?9?9?9E0?9?9?9*9*9?9?9?9?9?9?9*9?9*9*9?9*9,26.50,22.50,79,95427,0,551,410,7,0,16,1336,2125,1336,1318,243,0.0,7,7,8333.0,1014,9,999999999,87,0.2200,0,88,0.160,0.0,0.0
2016,7,21,19,42,?9?9?9?9E0?9?9?9*9*9?9?9?9?9?9?9*9?9*9*9?9*9,26.50,22.50,79,95427,0,551,410,6,0,16,1336,2125,1336,1318,243,0.0,7,7,8333.0,1014,9,999999999,87,0.2200,0,88,0.160,0.0,0.0
2016,7,21,19,43,?9?9?9?9E0?9?9?9*9*9?9?9?9?9?9?9*9?9*9*9?9*9,26.50,22.50,79,95427,0,551,410,6,0,16,1336,2125,1336,1318,243,0.0,7,7,8333.0,1014,9,999999999,87,0.2200,0,88,0.160,0.0,0.0
2016,7,21,19,44,?9?9?9?9E0?9?9?9*9*9?9?9?9?9?9?9*9?9*9*9?9*9,26.50,22.50,79,95427,0,551,410,6,0,16,1336,2125,1336,1318,243,0.0,7,7,8333.0,1014,9,999999999,87,0.2200,0,88,0.160,0.0,0.0
2016,7,21,19,45,?9?9?9?9E0?9?9?9*9*9?9?9?9?9?9?9*9?9*9*9?9*9,26.50,22.50,79,95427,0,551,410,5,0,16,1336,2125,1336,1318,243,0.0,7,7,8333.0,1014,9,999999999,87,0.2200,0,88,0.160,0.0,0.0
2016,7,21,19,46,?9?9?9?9E0?9?9?9*9*9?9?9?9?9?9?9*9?9*9*9?9*9,26.50,22.50,79,95427,0,551,410,5,0,16,1336,2125,1336,1318,243,0.0,7,7,8333.0,1014,9,999999999,87,0.2200,0,88,0.160,0.0,0.0
2016,7,21,19,47,?9?9?9?9E0?9?9?9*9*9?9?9?9?9?9?9*9?9*9*9?9*9,26.50,22.50,79,95427,0,551,410,5,0,16,1336,2125,1336,1318,243,0.0,7,7,8333.0,1014,9,999999999,87,0.2200,0,88,0.160,0.0,0.0
2016,7,21,19,48,?9?9?9?9E0?9?9?9*9*9?9?9?9?9?9?9*9?9*9*9?9*9,26.50,22.50,79,95427,0,551,410,4,0,16,1336,2125,1336,1318,243,0.0,7,7,8333.0,1014,9,999999999,87,0.2200,0,88,0.160,0.0,0.0
2016,7,21,19,49,?9?9?9?9E0?9?9?9*9*9?9?9?9?9?9?9*9?9*9*9?9*9,26.50,22.50,79,95427,0,551,410,4,0,16,1336,2125,1336,1318,243,0.0,7,7,8333.0,1014,9,999999999,87,0.2200,0,88,0.160,0.0,0.0
2016,7,21,19,50,?9?9?9?9E0?9?9?9*9*9?9?9?9?9?9?9*9?9*9*9?9*9,26.50,22.50,79,95427,0,551,410,4,0,16,1336,2125,1336,1318,243,0.0,7,7,8333.0,1014,9,999999999,87,0.2200,0,88,0.160,0.0,0.0
2016,7,21,19,51,?9?9?9?9E0?9?9?9*9*9?9?9?9?9?9?9*9?9*9*9?9*9,26.50,22.50,79,95427,0,551,410,3,0,16,1336,2125,1336,1318,243,0.0,7,7,8333.0,1014,9,999999999,87,0.2200,0,88,0.160,0.0,0.0
2016,7,21,19,52,?9?9?9?9E0?9?9?9*9*9?9?9?9?9?9?9*9?9*9*9?9*9,26.50,22.50,79,95427,0,551,410,3,0,16,1336,2125,1336,1318,243,0.0,7,7,8333.0,1014,9,999999999,87,0.2200,0,88,0.160,0.0,0.0
2016,7,21,19,53,?9?9?9?9E0?9?9?9*9*9?9?9?9?9?9?9*9?9*9*9?9*9,26.50,22.50,79,95427,0,551,410,3,0,16,1336,2125,1336,1318,243,0.0,7,7,8333.0,1014,9,999999999,87,0.2200,0,88,0.160,0.0,0.0
2016,7,21,19,54,?9?9?9?9E0?9?9?9*9*9?9?9?9?9?9?9*9?9*9*9?9*9,26.50,22.50,79,95427,0,551,410,2,0,16,1336,2125,1336,1318,243,0.0,7,7,8333.0,1014,9,999999999,87,0.2200,0,88,0.160,0.0,0.0
2016,7,21,19,55,?9?9?9?9E0?9?9?9*9*9?9?9?9?9?9?9*9?9*9*9?9*9,26.50,22.50,79,95427,0,551,410,2,0,16,1336,2125,1336,1318,243,0.0,7,7,8333.0,1014,9,999999999,87,0.2200,0,88,0.160,0.0,0.0
2016,7,21,19,56,?9?9?9?9E0?9?9?9*9*9?9?9?9?9?9?9*9?9*9*9?9*9,26.50,22.50,79,95427,0,551,410,2,0,16,1336,2125,1336,1318,243,0.0,7,7,8333.0,1014,9,999999999,87,0.2200,0,88,0.160,0.0,0.0
2016,7,21,19,57,?9?9?9?9E0?9?9?9*9*9?9?9?9?9?9?9*9?9*9*9?9*9,26.50,22.50,79,95427,0,551,410,1,0,16,1336,2125,1336,1318,243,0.0,7,7,8333.0,1014,9,999999999,87,0.2200,0,88,0.160,0.0,0.0
2016,7,21,19,58,?9?9?9?9E0?9?9?9*9*9?9?9?9?9?9?9*9?9*9*9?9*9,26.50,22.50,79,95427,0,551,410,1,0,16,1336,2125,1336,1318,243,0.0,7,7,8333.0,1014,9,999999999,87,0.2200,0,88,0.160,0.0,0.0
2016,7,21,19,59,?9?9?9?9E0?9?9?9*9*9?9?9?9?9?9?9*9?9*9*9?9*9,26.50,22.50,79,95427,0,551,410,1,0,16,1336,2125,1336,1318,243,0.0,7,7,8333.0,1014,9,999999999,87,0.2200,0,88,0.160,0.0,0.0
2016,7,21,19,60,?9?9?9?9E0?9?9?9*9*9?9?9?9?9?9?9*9?9*9*9?9*9,26.50,22.50,79,95427,0,551,410,0,0,16,1336,2125,1336,1318,243,0.0,7,7,8333.0,1014,9,999999999,87,0.2200,0,88,0.160,0.0,0.0
2016,7,21,20,1,?9?9?9?9E0?9?9?9*9*9?9?9?9?9?9?9*9?9*9*9?9*9,25.60,22.50,83,95452,0,0,409,0,0,0,0,0,0,0,235,0.0,8,8,8333.0,1096,9,999999999,87,0.2200,0,88,0.160,0.0,0.0
2016,7,21,20,2,?9?9?9?9E0?9?9?9*9*9?9?9?9?9?9?9*9?9*9*9?9*9,25.60,22.50,83,95452,0,0,409,0,0,0,0,0,0,0,235,0.0,8,8,8333.0,1096,9,999999999,87,0.2200,0,88,0.160,0.0,0.0
2016,7,21,20,3,?9?9?9?9E0?9?9?9*9*9?9?9?9?9?9?9*9?9*9*9?9*9,25.60,22.50,83,95452,0,0,409,0,0,0,0,0,0,0,235,0.0,8,8,8333.0,1096,9,999999999,87,0.2200,0,88,0.160,0.0,0.0
2016,7,21,20,4,?9?9?9?9E0?9?9?9*9*9?9?9?9?9?9?9*9?9*9*9?9*9,25.60,22.50,83,95452,0,0,409,0,0,0,0,0,0,0,235,0.0,8,8,8333.0,1096,9,999999999,87,0.2200,0,88,0.160,0.0,0.0
2016,7,21,20,5,?9?9?9?9E0?9?9?9*9*9?9?9?9?9?9?9*9?9*9*9?9*9,25.60,22.50,83,95452,0,0,409,0,0,0,0,0,0,0,235,0.0,8,8,8333.0,1096,9,999999999,87,0.2200,0,88,0.160,0.0,0.0
2016,7,21,20,6,?9?9?9?9E0?9?9?9*9*9?9?9?9?9?9?9*9?9*9*9?9*9,25.60,22.50,83,95452,0,0,409,0,0,0,0,0,0,0,235,0.0,8,8,8333.0,1096,9,999999999,87,0.2200,0,88,0.160,0.0,0.0
2016,7,21,20,7,?9?9?9?9E0?9?9?9*9*9?9?9?9?9?9?9*9?9*9*9?9*9,25.60,22.50,83,95452,0,0,409,0,0,0,0,0,0,0,235,0.0,8,8,8333.0,1096,9,999999999,87,0.2200,0,88,0.160,0.0,0.0
2016,7,21,20,8,?9?9?9?9E0?9?9?9*9*9?9?9?9?9?9?9*9?9*9*9?9*9,25.60,22.50,83,95452,0,0,409,0,0,0,0,0,0,0,235,0.0,8,8,8333.0,1096,9,999999999,87,0.2200,0,88,0.160,0.0,0.0
2016,7,21,20,9,?9?9?9?9E0?9?9?9*9*9?9?9?9?9?9?9*9?9*9*9?9*9,25.60,22.50,83,95452,0,0,409,0,0,0,0,0,0,0,235,0.0,8,8,8333.0,1096,9,999999999,87,0.2200,0,88,0.160,0.0,0.0
2016,7,21,20,10,?9?9?9?9E0?9?9?9*9*9?9?9?9?9?9?9*9?9*9*9?9*9,25.60,22.50,83,95452,0,0,409,0,0,0,0,0,0,0,235,0.0,8,8,8333.0,1096,9,999999999,87,0.2200,0,88,0.160,0.0,0.0
2016,7,21,20,11,?9?9?9?9E0?9?9?9*9*9?9?9?9?9?9?9*9?9*9*9?9*9,25.60,22.50,83,95452,0,0,409,0,0,0,0,0,0,0,235,0.0,8,8,8333.0,1096,9,999999999,87,0.2200,0,88,0.160,0.0,0.0
2016,7,21,20,12,?9?9?9?9E0?9?9?9*9*9?9?9?9?9?9?9*9?9*9*9?9*9,25.60,22.50,83,95452,0,0,409,0,0,0,0,0,0,0,235,0.0,8,8,8333.0,1096,9,999999999,87,0.2200,0,88,0.160,0.0,0.0
2016,7,21,20,13,?9?9?9?9E0?9?9?9*9*9?9?9?9?9?9?9*9?9*9*9?9*9,25.60,22.50,83,95452,0,0,409,0,0,0,0,0,0,0,235,0.0,8,8,8333.0,1096,9,999999999,87,0.2200,0,88,0.160,0.0,0.0
2016,7,21,20,14,?9?9?9?9E0?9?9?9*9*9?9?9?9?9?9?9*9?9*9*9?9*9,25.60,22.50,83,95452,0,0,409,0,0,0,0,0,0,0,235,0.0,8,8,8333.0,1096,9,999999999,87,0.2200,0,88,0.160,0.0,0.0
2016,7,21,20,15,?9?9?9?9E0?9?9?9*9*9?9?9?9?9?9?9*9?9*9*9?9*9,25.60,22.50,83,95452,0,0,409,0,0,0,0,0,0,0,235,0.0,8,8,8333.0,1096,9,999999999,87,0.2200,0,88,0.160,0.0,0.0
2016,7,21,20,16,?9?9?9?9E0?9?9?9*9*9?9?9?9?9?9?9*9?9*9*9?9*9,25.60,22.50,83,95452,0,0,409,0,0,0,0,0,0,0,235,0.0,8,8,8333.0,1096,9,999999999,87,0.2200,0,88,0.160,0.0,0.0
2016,7,21,20,17,?9?9?9?9E0?9?9?9*9*9?9?9?9?9?9?9*9?9*9*9?9*9,25.60,22.50,83,95452,0,0,409,0,0,0,0,0,0,0,235,0.0,8,8,8333.0,1096,9,999999999,87,0.2200,0,88,0.160,0.0,0.0
2016,7,21,20,18,?9?9?9?9E0?9?9?9*9*9?9?9?9?9?9?9*9?9*9*9?9*9,25.60,22.50,83,95452,0,0,409,0,0,0,0,0,0,0,235,0.0,8,8,8333.0,1096,9,999999999,87,0.2200,0,88,0.160,0.0,0.0
2016,7,21,20,19,?9?9?9?9E0?9?9?9*9*9?9?9?9?9?9?9*9?9*9*9?9*9,25.60,22.50,83,95452,0,0,409,0,0,0,0,0,0,0,235,0.0,8,8,8333.0,1096,9,999999999,87,0.2200,0,88,0.160,0.0,0.0
2016,7,21,20,20,?9?9?9?9E0?9?9?9*9*9?9?9?9?9?9?9*9?9*9*9?9*9,25.60,22.50,83,95452,0,0,409,0,0,0,0,0,0,0,235,0.0,8,8,8333.0,1096,9,999999999,87,0.2200,0,88,0.160,0.0,0.0
2016,7,21,20,21,?9?9?9?9E0?9?9?9*9*9?9?9?9?9?9?9*9?9*9*9?9*9,25.60,22.50,83,95452,0,0,409,0,0,0,0,0,0,0,235,0.0,8,8,8333.0,1096,9,999999999,87,0.2200,0,88,0.160,0.0,0.0
2016,7,21,20,22,?9?9?9?9E0?9?9?9*9*9?9?9?9?9?9?9*9?9*9*9?9*9,25.60,22.50,83,95452,0,0,409,0,0,0,0,0,0,0,235,0.0,8,8,8333.0,1096,9,999999999,87,0.2200,0,88,0.160,0.0,0.0
2016,7,21,20,23,?9?9?9?9E0?9?9?9*9*9?9?9?9?9?9?9*9?9*9*9?9*9,25.60,22.50,83,95452,0,0,409,0,0,0,0,0,0,0,235,0.0,8,8,8333.0,1096,9,999999999,87,0.2200,0,88,0.160,0.0,0.0
2016,7,21,20,24,?9?9?9?9E0?9?9?9*9*9?9?9?9?9?9?9*9?9*9*9?9*9,25.60,22.50,83,95452,0,0,409,0,0,0,0,0,0,0,235,0.0,8,8,8333.0,1096,9,999999999,87,0.2200,0,88,0.160,0.0,0.0
2016,7,21,20,25,?9?9?9?9E0?9?9?9*9*9?9?9?9?9?9?9*9?9*9*9?9*9,25.60,22.50,83,95452,0,0,409,0,0,0,0,0,0,0,235,0.0,8,8,8333.0,1096,9,999999999,87,0.2200,0,88,0.160,0.0,0.0
2016,7,21,20,26,?9?9?9?9E0?9?9?9*9*9?9?9?9?9?9?9*9?9*9*9?9*9,25.60,22.50,83,95452,0,0,409,0,0,0,0,0,0,0,235,0.0,8,8,8333.0,1096,9,999999999,87,0.2200,0,88,0.160,0.0,0.0
2016,7,21,20,27,?9?9?9?9E0?9?9?9*9*9?9?9?9?9?9?9*9?9*9*9?9*9,25.60,22.50,83,95452,0,0,409,0,0,0,0,0,0,0,235,0.0,8,8,8333.0,1096,9,999999999,87,0.2200,0,88,0.160,0.0,0.0
2016,7,21,20,28,?9?9?9?9E0?9?9?9*9*9?9?9?9?9?9?9*9?9*9*9?9*9,25.60,22.50,83,95452,0,0,409,0,0,0,0,0,0,0,235,0.0,8,8,8333.0,1096,9,999999999,87,0.2200,0,88,0.160,0.0,0.0
2016,7,21,20,29,?9?9?9?9E0?9?9?9*9*9?9?9?9?9?9?9*9?9*9*9?9*9,25.60,22.50,83,95452,0,0,409,0,0,0,0,0,0,0,235,0.0,8,8,8333.0,1096,9,999999999,87,0.2200,0,88,0.160,0.0,0.0
2016,7,21,20,30,?9?9?9?9E0?9?9?9*9*9?9?9?9?9?9?9*9?9*9*9?9*9,25.60,22.50,83,95452,0,0,409,0,0,0,0,0,0,0,235,0.0,8,8,8333.0,1096,9,999999999,87,0.2200,0,88,0.160,0.0,0.0
2016,7,21,20,31,?9?9?9?9E0?9?9?9*9*9?9?9?9?9?9?9*9?9*9*9?9*9,25.60,22.50,83,95452,0,0,409,0,0,0,0,0,0,0,235,0.0,8,8,8333.0,1096,9,999999999,87,0.2200,0,88,0.160,0.0,0.0
2016,7,21,20,32,?9?9?9?9E0?9?9?9*9*9?9?9?9?9?9?9*9?9*9*9?9*9,25.60,22.50,83,95452,0,0,409,0,0,0,0,0,0,0,235,0.0,8,8,8333.0,1096,9,999999999,87,0.2200,0,88,0.160,0.0,0.0
2016,7,21,20,33,?9?9?9?9E0?9?9?9*9*9?9?9?9?9?9?9*9?9*9*9?9*9,25.60,22.50,83,95452,0,0,409,0,0,0,0,0,0,0,235,0.0,8,8,8333.0,1096,9,999999999,87,0.2200,0,88,0.160,0.0,0.0
2016,7,21,20,34,?9?9?9?9E0?9?9?9*9*9?9?9?9?9?9?9*9?9*9*9?9*9,25.60,22.50,83,95452,0,0,409,0,0,0,0,0,0,0,235,0.0,8,8,8333.0,1096,9,999999999,87,0.2200,0,88,0.160,0.0,0.0
2016,7,21,20,35,?9?9?9?9E0?9?9?9*9*9?9?9?9?9?9?9*9?9*9*9?9*9,25.60,22.50,83,95452,0,0,409,0,0,0,0,0,0,0,235,0.0,8,8,8333.0,1096,9,999999999,87,0.2200,0,88,0.160,0.0,0.0
2016,7,21,20,36,?9?9?9?9E0?9?9?9*9*9?9?9?9?9?9?9*9?9*9*9?9*9,25.60,22.50,83,95452,0,0,409,0,0,0,0,0,0,0,235,0.0,8,8,8333.0,1096,9,999999999,87,0.2200,0,88,0.160,0.0,0.0
2016,7,21,20,37,?9?9?9?9E0?9?9?9*9*9?9?9?9?9?9?9*9?9*9*9?9*9,25.60,22.50,83,95452,0,0,409,0,0,0,0,0,0,0,235,0.0,8,8,8333.0,1096,9,999999999,87,0.2200,0,88,0.160,0.0,0.0
2016,7,21,20,38,?9?9?9?9E0?9?9?9*9*9?9?9?9?9?9?9*9?9*9*9?9*9,25.60,22.50,83,95452,0,0,409,0,0,0,0,0,0,0,235,0.0,8,8,8333.0,1096,9,999999999,87,0.2200,0,88,0.160,0.0,0.0
2016,7,21,20,39,?9?9?9?9E0?9?9?9*9*9?9?9?9?9?9?9*9?9*9*9?9*9,25.60,22.50,83,95452,0,0,409,0,0,0,0,0,0,0,235,0.0,8,8,8333.0,1096,9,999999999,87,0.2200,0,88,0.160,0.0,0.0
2016,7,21,20,40,?9?9?9?9E0?9?9?9*9*9?9?9?9?9?9?9*9?9*9*9?9*9,25.60,22.50,83,95452,0,0,409,0,0,0,0,0,0,0,235,0.0,8,8,8333.0,1096,9,999999999,87,0.2200,0,88,0.160,0.0,0.0
2016,7,21,20,41,?9?9?9?9E0?9?9?9*9*9?9?9?9?9?9?9*9?9*9*9?9*9,25.60,22.50,83,95452,0,0,409,0,0,0,0,0,0,0,235,0.0,8,8,8333.0,1096,9,999999999,87,0.2200,0,88,0.160,0.0,0.0
2016,7,21,20,42,?9?9?9?9E0?9?9?9*9*9?9?9?9?9?9?9*9?9*9*9?9*9,25.60,22.50,83,95452,0,0,409,0,0,0,0,0,0,0,235,0.0,8,8,8333.0,1096,9,999999999,87,0.2200,0,88,0.160,0.0,0.0
2016,7,21,20,43,?9?9?9?9E0?9?9?9*9*9?9?9?9?9?9?9*9?9*9*9?9*9,25.60,22.50,83,95452,0,0,409,0,0,0,0,0,0,0,235,0.0,8,8,8333.0,1096,9,999999999,87,0.2200,0,88,0.160,0.0,0.0
2016,7,21,20,44,?9?9?9?9E0?9?9?9*9*9?9?9?9?9?9?9*9?9*9*9?9*9,25.60,22.50,83,95452,0,0,409,0,0,0,0,0,0,0,235,0.0,8,8,8333.0,1096,9,999999999,87,0.2200,0,88,0.160,0.0,0.0
2016,7,21,20,45,?9?9?9?9E0?9?9?9*9*9?9?9?9?9?9?9*9?9*9*9?9*9,25.60,22.50,83,95452,0,0,409,0,0,0,0,0,0,0,235,0.0,8,8,8333.0,1096,9,999999999,87,0.2200,0,88,0.160,0.0,0.0
2016,7,21,20,46,?9?9?9?9E0?9?9?9*9*9?9?9?9?9?9?9*9?9*9*9?9*9,25.60,22.50,83,95452,0,0,409,0,0,0,0,0,0,0,235,0.0,8,8,8333.0,1096,9,999999999,87,0.2200,0,88,0.160,0.0,0.0
2016,7,21,20,47,?9?9?9?9E0?9?9?9*9*9?9?9?9?9?9?9*9?9*9*9?9*9,25.60,22.50,83,95452,0,0,409,0,0,0,0,0,0,0,235,0.0,8,8,8333.0,1096,9,999999999,87,0.2200,0,88,0.160,0.0,0.0
2016,7,21,20,48,?9?9?9?9E0?9?9?9*9*9?9?9?9?9?9?9*9?9*9*9?9*9,25.60,22.50,83,95452,0,0,409,0,0,0,0,0,0,0,235,0.0,8,8,8333.0,1096,9,999999999,87,0.2200,0,88,0.160,0.0,0.0
2016,7,21,20,49,?9?9?9?9E0?9?9?9*9*9?9?9?9?9?9?9*9?9*9*9?9*9,25.60,22.50,83,95452,0,0,409,0,0,0,0,0,0,0,235,0.0,8,8,8333.0,1096,9,999999999,87,0.2200,0,88,0.160,0.0,0.0
2016,7,21,20,50,?9?9?9?9E0?9?9?9*9*9?9?9?9?9?9?9*9?9*9*9?9*9,25.60,22.50,83,95452,0,0,409,0,0,0,0,0,0,0,235,0.0,8,8,8333.0,1096,9,999999999,87,0.2200,0,88,0.160,0.0,0.0
2016,7,21,20,51,?9?9?9?9E0?9?9?9*9*9?9?9?9?9?9?9*9?9*9*9?9*9,25.60,22.50,83,95452,0,0,409,0,0,0,0,0,0,0,235,0.0,8,8,8333.0,1096,9,999999999,87,0.2200,0,88,0.160,0.0,0.0
2016,7,21,20,52,?9?9?9?9E0?9?9?9*9*9?9?9?9?9?9?9*9?9*9*9?9*9,25.60,22.50,83,95452,0,0,409,0,0,0,0,0,0,0,235,0.0,8,8,8333.0,1096,9,999999999,87,0.2200,0,88,0.160,0.0,0.0
2016,7,21,20,53,?9?9?9?9E0?9?9?9*9*9?9?9?9?9?9?9*9?9*9*9?9*9,25.60,22.50,83,95452,0,0,409,0,0,0,0,0,0,0,235,0.0,8,8,8333.0,1096,9,999999999,87,0.2200,0,88,0.160,0.0,0.0
2016,7,21,20,54,?9?9?9?9E0?9?9?9*9*9?9?9?9?9?9?9*9?9*9*9?9*9,25.60,22.50,83,95452,0,0,409,0,0,0,0,0,0,0,235,0.0,8,8,8333.0,1096,9,999999999,87,0.2200,0,88,0.160,0.0,0.0
2016,7,21,20,55,?9?9?9?9E0?9?9?9*9*9?9?9?9?9?9?9*9?9*9*9?9*9,25.60,22.50,83,95452,0,0,409,0,0,0,0,0,0,0,235,0.0,8,8,8333.0,1096,9,999999999,87,0.2200,0,88,0.160,0.0,0.0
2016,7,21,20,56,?9?9?9?9E0?9?9?9*9*9?9?9?9?9?9?9*9?9*9*9?9*9,25.60,22.50,83,95452,0,0,409,0,0,0,0,0,0,0,235,0.0,8,8,8333.0,1096,9,999999999,87,0.2200,0,88,0.160,0.0,0.0
2016,7,21,20,57,?9?9?9?9E0?9?9?9*9*9?9?9?9?9?9?9*9?9*9*9?9*9,25.60,22.50,83,95452,0,0,409,0,0,0,0,0,0,0,235,0.0,8,8,8333.0,1096,9,999999999,87,0.2200,0,88,0.160,0.0,0.0
2016,7,21,20,58,?9?9?9?9E0?9?9?9*9*9?9?9?9?9?9?9*9?9*9*9?9*9,25.60,22.50,83,95452,0,0,409,0,0,0,0,0,0,0,235,0.0,8,8,8333.0,1096,9,999999999,87,0.2200,0,88,0.160,0.0,0.0
2016,7,21,20,59,?9?9?9?9E0?9?9?9*9*9?9?9?9?9?9?9*9?9*9*9?9*9,25.60,22.50,83,95452,0,0,409,0,0,0,0,0,0,0,235,0.0,8,8,8333.0,1096,9,999999999,87,0.2200,0,88,0.160,0.0,0.0
2016,7,21,20,60,?9?9?9?9E0?9?9?9*9*9?9?9?9?9?9?9*9?9*9*9?9*9,25.60,22.50,83,95452,0,0,409,0,0,0,0,0,0,0,235,0.0,8,8,8333.0,1096,9,999999999,87,0.2200,0,88,0.160,0.0,0.0
2016,7,21,21,1,?9?9?9?9E0?9?9?9?9?9?9?9?9?9?9?9*9?9*9*9?9*9,24.70,22.50,88,95478,0,0,402,0,0,0,0,0,0,0,222,0.0,9,9,8333.0,8400,9,999999999,87,0.2200,0,88,0.160,0.0,0.0
2016,7,21,21,2,?9?9?9?9E0?9?9?9?9?9?9?9?9?9?9?9*9?9*9*9?9*9,24.70,22.50,88,95478,0,0,402,0,0,0,0,0,0,0,222,0.0,9,9,8333.0,8400,9,999999999,87,0.2200,0,88,0.160,0.0,0.0
2016,7,21,21,3,?9?9?9?9E0?9?9?9?9?9?9?9?9?9?9?9*9?9*9*9?9*9,24.70,22.50,88,95478,0,0,402,0,0,0,0,0,0,0,222,0.0,9,9,8333.0,8400,9,999999999,87,0.2200,0,88,0.160,0.0,0.0
2016,7,21,21,4,?9?9?9?9E0?9?9?9?9?9?9?9?9?9?9?9*9?9*9*9?9*9,24.70,22.50,88,95478,0,0,402,0,0,0,0,0,0,0,222,0.0,9,9,8333.0,8400,9,999999999,87,0.2200,0,88,0.160,0.0,0.0
2016,7,21,21,5,?9?9?9?9E0?9?9?9?9?9?9?9?9?9?9?9*9?9*9*9?9*9,24.70,22.50,88,95478,0,0,402,0,0,0,0,0,0,0,222,0.0,9,9,8333.0,8400,9,999999999,87,0.2200,0,88,0.160,0.0,0.0
2016,7,21,21,6,?9?9?9?9E0?9?9?9?9?9?9?9?9?9?9?9*9?9*9*9?9*9,24.70,22.50,88,95478,0,0,402,0,0,0,0,0,0,0,222,0.0,9,9,8333.0,8400,9,999999999,87,0.2200,0,88,0.160,0.0,0.0
2016,7,21,21,7,?9?9?9?9E0?9?9?9?9?9?9?9?9?9?9?9*9?9*9*9?9*9,24.70,22.50,88,95478,0,0,402,0,0,0,0,0,0,0,222,0.0,9,9,8333.0,8400,9,999999999,87,0.2200,0,88,0.160,0.0,0.0
2016,7,21,21,8,?9?9?9?9E0?9?9?9?9?9?9?9?9?9?9?9*9?9*9*9?9*9,24.70,22.50,88,95478,0,0,402,0,0,0,0,0,0,0,222,0.0,9,9,8333.0,8400,9,999999999,87,0.2200,0,88,0.160,0.0,0.0
2016,7,21,21,9,?9?9?9?9E0?9?9?9?9?9?9?9?9?9?9?9*9?9*9*9?9*9,24.70,22.50,88,95478,0,0,402,0,0,0,0,0,0,0,222,0.0,9,9,8333.0,8400,9,999999999,87,0.2200,0,88,0.160,0.0,0.0
2016,7,21,21,10,?9?9?9?9E0?9?9?9?9?9?9?9?9?9?9?9*9?9*9*9?9*9,24.70,22.50,88,95478,0,0,402,0,0,0,0,0,0,0,222,0.0,9,9,8333.0,8400,9,999999999,87,0.2200,0,88,0.160,0.0,0.0
2016,7,21,21,11,?9?9?9?9E0?9?9?9?9?9?9?9?9?9?9?9*9?9*9*9?9*9,24.70,22.50,88,95478,0,0,402,0,0,0,0,0,0,0,222,0.0,9,9,8333.0,8400,9,999999999,87,0.2200,0,88,0.160,0.0,0.0
2016,7,21,21,12,?9?9?9?9E0?9?9?9?9?9?9?9?9?9?9?9*9?9*9*9?9*9,24.70,22.50,88,95478,0,0,402,0,0,0,0,0,0,0,222,0.0,9,9,8333.0,8400,9,999999999,87,0.2200,0,88,0.160,0.0,0.0
2016,7,21,21,13,?9?9?9?9E0?9?9?9?9?9?9?9?9?9?9?9*9?9*9*9?9*9,24.70,22.50,88,95478,0,0,402,0,0,0,0,0,0,0,222,0.0,9,9,8333.0,8400,9,999999999,87,0.2200,0,88,0.160,0.0,0.0
2016,7,21,21,14,?9?9?9?9E0?9?9?9?9?9?9?9?9?9?9?9*9?9*9*9?9*9,24.70,22.50,88,95478,0,0,402,0,0,0,0,0,0,0,222,0.0,9,9,8333.0,8400,9,999999999,87,0.2200,0,88,0.160,0.0,0.0
2016,7,21,21,15,?9?9?9?9E0?9?9?9?9?9?9?9?9?9?9?9*9?9*9*9?9*9,24.70,22.50,88,95478,0,0,402,0,0,0,0,0,0,0,222,0.0,9,9,8333.0,8400,9,999999999,87,0.2200,0,88,0.160,0.0,0.0
2016,7,21,21,16,?9?9?9?9E0?9?9?9?9?9?9?9?9?9?9?9*9?9*9*9?9*9,24.70,22.50,88,95478,0,0,402,0,0,0,0,0,0,0,222,0.0,9,9,8333.0,8400,9,999999999,87,0.2200,0,88,0.160,0.0,0.0
2016,7,21,21,17,?9?9?9?9E0?9?9?9?9?9?9?9?9?9?9?9*9?9*9*9?9*9,24.70,22.50,88,95478,0,0,402,0,0,0,0,0,0,0,222,0.0,9,9,8333.0,8400,9,999999999,87,0.2200,0,88,0.160,0.0,0.0
2016,7,21,21,18,?9?9?9?9E0?9?9?9?9?9?9?9?9?9?9?9*9?9*9*9?9*9,24.70,22.50,88,95478,0,0,402,0,0,0,0,0,0,0,222,0.0,9,9,8333.0,8400,9,999999999,87,0.2200,0,88,0.160,0.0,0.0
2016,7,21,21,19,?9?9?9?9E0?9?9?9?9?9?9?9?9?9?9?9*9?9*9*9?9*9,24.70,22.50,88,95478,0,0,402,0,0,0,0,0,0,0,222,0.0,9,9,8333.0,8400,9,999999999,87,0.2200,0,88,0.160,0.0,0.0
2016,7,21,21,20,?9?9?9?9E0?9?9?9?9?9?9?9?9?9?9?9*9?9*9*9?9*9,24.70,22.50,88,95478,0,0,402,0,0,0,0,0,0,0,222,0.0,9,9,8333.0,8400,9,999999999,87,0.2200,0,88,0.160,0.0,0.0
2016,7,21,21,21,?9?9?9?9E0?9?9?9?9?9?9?9?9?9?9?9*9?9*9*9?9*9,24.70,22.50,88,95478,0,0,402,0,0,0,0,0,0,0,222,0.0,9,9,8333.0,8400,9,999999999,87,0.2200,0,88,0.160,0.0,0.0
2016,7,21,21,22,?9?9?9?9E0?9?9?9?9?9?9?9?9?9?9?9*9?9*9*9?9*9,24.70,22.50,88,95478,0,0,402,0,0,0,0,0,0,0,222,0.0,9,9,8333.0,8400,9,999999999,87,0.2200,0,88,0.160,0.0,0.0
2016,7,21,21,23,?9?9?9?9E0?9?9?9?9?9?9?9?9?9?9?9*9?9*9*9?9*9,24.70,22.50,88,95478,0,0,402,0,0,0,0,0,0,0,222,0.0,9,9,8333.0,8400,9,999999999,87,0.2200,0,88,0.160,0.0,0.0
2016,7,21,21,24,?9?9?9?9E0?9?9?9?9?9?9?9?9?9?9?9*9?9*9*9?9*9,24.70,22.50,88,95478,0,0,402,0,0,0,0,0,0,0,222,0.0,9,9,8333.0,8400,9,999999999,87,0.2200,0,88,0.160,0.0,0.0
2016,7,21,21,25,?9?9?9?9E0?9?9?9?9?9?9?9?9?9?9?9*9?9*9*9?9*9,24.70,22.50,88,95478,0,0,402,0,0,0,0,0,0,0,222,0.0,9,9,8333.0,8400,9,999999999,87,0.2200,0,88,0.160,0.0,0.0
2016,7,21,21,26,?9?9?9?9E0?9?9?9?9?9?9?9?9?9?9?9*9?9*9*9?9*9,24.70,22.50,88,95478,0,0,402,0,0,0,0,0,0,0,222,0.0,9,9,8333.0,8400,9,999999999,87,0.2200,0,88,0.160,0.0,0.0
2016,7,21,21,27,?9?9?9?9E0?9?9?9?9?9?9?9?9?9?9?9*9?9*9*9?9*9,24.70,22.50,88,95478,0,0,402,0,0,0,0,0,0,0,222,0.0,9,9,8333.0,8400,9,999999999,87,0.2200,0,88,0.160,0.0,0.0
2016,7,21,21,28,?9?9?9?9E0?9?9?9?9?9?9?9?9?9?9?9*9?9*9*9?9*9,24.70,22.50,88,95478,0,0,402,0,0,0,0,0,0,0,222,0.0,9,9,8333.0,8400,9,999999999,87,0.2200,0,88,0.160,0.0,0.0
2016,7,21,21,29,?9?9?9?9E0?9?9?9?9?9?9?9?9?9?9?9*9?9*9*9?9*9,24.70,22.50,88,95478,0,0,402,0,0,0,0,0,0,0,222,0.0,9,9,8333.0,8400,9,999999999,87,0.2200,0,88,0.160,0.0,0.0
2016,7,21,21,30,?9?9?9?9E0?9?9?9?9?9?9?9?9?9?9?9*9?9*9*9?9*9,24.70,22.50,88,95478,0,0,402,0,0,0,0,0,0,0,222,0.0,9,9,8333.0,8400,9,999999999,87,0.2200,0,88,0.160,0.0,0.0
2016,7,21,21,31,?9?9?9?9E0?9?9?9?9?9?9?9?9?9?9?9*9?9*9*9?9*9,24.70,22.50,88,95478,0,0,402,0,0,0,0,0,0,0,222,0.0,9,9,8333.0,8400,9,999999999,87,0.2200,0,88,0.160,0.0,0.0
2016,7,21,21,32,?9?9?9?9E0?9?9?9?9?9?9?9?9?9?9?9*9?9*9*9?9*9,24.70,22.50,88,95478,0,0,402,0,0,0,0,0,0,0,222,0.0,9,9,8333.0,8400,9,999999999,87,0.2200,0,88,0.160,0.0,0.0
2016,7,21,21,33,?9?9?9?9E0?9?9?9?9?9?9?9?9?9?9?9*9?9*9*9?9*9,24.70,22.50,88,95478,0,0,402,0,0,0,0,0,0,0,222,0.0,9,9,8333.0,8400,9,999999999,87,0.2200,0,88,0.160,0.0,0.0
2016,7,21,21,34,?9?9?9?9E0?9?9?9?9?9?9?9?9?9?9?9*9?9*9*9?9*9,24.70,22.50,88,95478,0,0,402,0,0,0,0,0,0,0,222,0.0,9,9,8333.0,8400,9,999999999,87,0.2200,0,88,0.160,0.0,0.0
2016,7,21,21,35,?9?9?9?9E0?9?9?9?9?9?9?9?9?9?9?9*9?9*9*9?9*9,24.70,22.50,88,95478,0,0,402,0,0,0,0,0,0,0,222,0.0,9,9,8333.0,8400,9,999999999,87,0.2200,0,88,0.160,0.0,0.0
2016,7,21,21,36,?9?9?9?9E0?9?9?9?9?9?9?9?9?9?9?9*9?9*9*9?9*9,24.70,22.50,88,95478,0,0,402,0,0,0,0,0,0,0,222,0.0,9,9,8333.0,8400,9,999999999,87,0.2200,0,88,0.160,0.0,0.0
2016,7,21,21,37,?9?9?9?9E0?9?9?9?9?9?9?9?9?9?9?9*9?9*9*9?9*9,24.70,22.50,88,95478,0,0,402,0,0,0,0,0,0,0,222,0.0,9,9,8333.0,8400,9,999999999,87,0.2200,0,88,0.160,0.0,0.0
2016,7,21,21,38,?9?9?9?9E0?9?9?9?9?9?9?9?9?9?9?9*9?9*9*9?9*9,24.70,22.50,88,95478,0,0,402,0,0,0,0,0,0,0,222,0.0,9,9,8333.0,8400,9,999999999,87,0.2200,0,88,0.160,0.0,0.0
2016,7,21,21,39,?9?9?9?9E0?9?9?9?9?9?9?9?9?9?9?9*9?9*9*9?9*9,24.70,22.50,88,95478,0,0,402,0,0,0,0,0,0,0,222,0.0,9,9,8333.0,8400,9,999999999,87,0.2200,0,88,0.160,0.0,0.0
2016,7,21,21,40,?9?9?9?9E0?9?9?9?9?9?9?9?9?9?9?9*9?9*9*9?9*9,24.70,22.50,88,95478,0,0,402,0,0,0,0,0,0,0,222,0.0,9,9,8333.0,8400,9,999999999,87,0.2200,0,88,0.160,0.0,0.0
2016,7,21,21,41,?9?9?9?9E0?9?9?9?9?9?9?9?9?9?9?9*9?9*9*9?9*9,24.70,22.50,88,95478,0,0,402,0,0,0,0,0,0,0,222,0.0,9,9,8333.0,8400,9,999999999,87,0.2200,0,88,0.160,0.0,0.0
2016,7,21,21,42,?9?9?9?9E0?9?9?9?9?9?9?9?9?9?9?9*9?9*9*9?9*9,24.70,22.50,88,95478,0,0,402,0,0,0,0,0,0,0,222,0.0,9,9,8333.0,8400,9,999999999,87,0.2200,0,88,0.160,0.0,0.0
2016,7,21,21,43,?9?9?9?9E0?9?9?9?9?9?9?9?9?9?9?9*9?9*9*9?9*9,24.70,22.50,88,95478,0,0,402,0,0,0,0,0,0,0,222,0.0,9,9,8333.0,8400,9,999999999,87,0.2200,0,88,0.160,0.0,0.0
2016,7,21,21,44,?9?9?9?9E0?9?9?9?9?9?9?9?9?9?9?9*9?9*9*9?9*9,24.70,22.50,88,95478,0,0,402,0,0,0,0,0,0,0,222,0.0,9,9,8333.0,8400,9,999999999,87,0.2200,0,88,0.160,0.0,0.0
2016,7,21,21,45,?9?9?9?9E0?9?9?9?9?9?9?9?9?9?9?9*9?9*9*9?9*9,24.70,22.50,88,95478,0,0,402,0,0,0,0,0,0,0,222,0.0,9,9,8333.0,8400,9,999999999,87,0.2200,0,88,0.160,0.0,0.0
2016,7,21,21,46,?9?9?9?9E0?9?9?9?9?9?9?9?9?9?9?9*9?9*9*9?9*9,24.70,22.50,88,95478,0,0,402,0,0,0,0,0,0,0,222,0.0,9,9,8333.0,8400,9,999999999,87,0.2200,0,88,0.160,0.0,0.0
2016,7,21,21,47,?9?9?9?9E0?9?9?9?9?9?9?9?9?9?9?9*9?9*9*9?9*9,24.70,22.50,88,95478,0,0,402,0,0,0,0,0,0,0,222,0.0,9,9,8333.0,8400,9,999999999,87,0.2200,0,88,0.160,0.0,0.0
2016,7,21,21,48,?9?9?9?9E0?9?9?9?9?9?9?9?9?9?9?9*9?9*9*9?9*9,24.70,22.50,88,95478,0,0,402,0,0,0,0,0,0,0,222,0.0,9,9,8333.0,8400,9,999999999,87,0.2200,0,88,0.160,0.0,0.0
2016,7,21,21,49,?9?9?9?9E0?9?9?9?9?9?9?9?9?9?9?9*9?9*9*9?9*9,24.70,22.50,88,95478,0,0,402,0,0,0,0,0,0,0,222,0.0,9,9,8333.0,8400,9,999999999,87,0.2200,0,88,0.160,0.0,0.0
2016,7,21,21,50,?9?9?9?9E0?9?9?9?9?9?9?9?9?9?9?9*9?9*9*9?9*9,24.70,22.50,88,95478,0,0,402,0,0,0,0,0,0,0,222,0.0,9,9,8333.0,8400,9,999999999,87,0.2200,0,88,0.160,0.0,0.0
2016,7,21,21,51,?9?9?9?9E0?9?9?9?9?9?9?9?9?9?9?9*9?9*9*9?9*9,24.70,22.50,88,95478,0,0,402,0,0,0,0,0,0,0,222,0.0,9,9,8333.0,8400,9,999999999,87,0.2200,0,88,0.160,0.0,0.0
2016,7,21,21,52,?9?9?9?9E0?9?9?9?9?9?9?9?9?9?9?9*9?9*9*9?9*9,24.70,22.50,88,95478,0,0,402,0,0,0,0,0,0,0,222,0.0,9,9,8333.0,8400,9,999999999,87,0.2200,0,88,0.160,0.0,0.0
2016,7,21,21,53,?9?9?9?9E0?9?9?9?9?9?9?9?9?9?9?9*9?9*9*9?9*9,24.70,22.50,88,95478,0,0,402,0,0,0,0,0,0,0,222,0.0,9,9,8333.0,8400,9,999999999,87,0.2200,0,88,0.160,0.0,0.0
2016,7,21,21,54,?9?9?9?9E0?9?9?9?9?9?9?9?9?9?9?9*9?9*9*9?9*9,24.70,22.50,88,95478,0,0,402,0,0,0,0,0,0,0,222,0.0,9,9,8333.0,8400,9,999999999,87,0.2200,0,88,0.160,0.0,0.0
2016,7,21,21,55,?9?9?9?9E0?9?9?9?9?9?9?9?9?9?9?9*9?9*9*9?9*9,24.70,22.50,88,95478,0,0,402,0,0,0,0,0,0,0,222,0.0,9,9,8333.0,8400,9,999999999,87,0.2200,0,88,0.160,0.0,0.0
2016,7,21,21,56,?9?9?9?9E0?9?9?9?9?9?9?9?9?9?9?9*9?9*9*9?9*9,24.70,22.50,88,95478,0,0,402,0,0,0,0,0,0,0,222,0.0,9,9,8333.0,8400,9,999999999,87,0.2200,0,88,0.160,0.0,0.0
2016,7,21,21,57,?9?9?9?9E0?9?9?9?9?9?9?9?9?9?9?9*9?9*9*9?9*9,24.70,22.50,88,95478,0,0,402,0,0,0,0,0,0,0,222,0.0,9,9,8333.0,8400,9,999999999,87,0.2200,0,88,0.160,0.0,0.0
2016,7,21,21,58,?9?9?9?9E0?9?9?9?9?9?9?9?9?9?9?9*9?9*9*9?9*9,24.70,22.50,88,95478,0,0,402,0,0,0,0,0,0,0,222,0.0,9,9,8333.0,8400,9,999999999,87,0.2200,0,88,0.160,0.0,0.0
2016,7,21,21,59,?9?9?9?9E0?9?9?9?9?9?9?9?9?9?9?9*9?9*9*9?9*9,24.70,22.50,88,95478,0,0,402,0,0,0,0,0,0,0,222,0.0,9,9,8333.0,8400,9,999999999,87,0.2200,0,88,0.160,0.0,0.0
2016,7,21,21,60,?9?9?9?9E0?9?9?9?9?9?9?9?9?9?9?9*9?9*9*9?9*9,24.70,22.50,88,95478,0,0,402,0,0,0,0,0,0,0,222,0.0,9,9,8333.0,8400,9,999999999,87,0.2200,0,88,0.160,0.0,0.0
2016,7,21,22,1,?9?9?9?9E0?9?9?9*9*9?9?9?9?9?9?9*9?9*9*9?9*9,24.30,22.40,89,95499,0,0,395,0,0,0,0,0,0,0,217,0.0,9,9,8333.0,935,9,999999999,86,0.2200,0,88,0.160,0.0,0.0
2016,7,21,22,2,?9?9?9?9E0?9?9?9*9*9?9?9?9?9?9?9*9?9*9*9?9*9,24.30,22.40,89,95499,0,0,395,0,0,0,0,0,0,0,217,0.0,9,9,8333.0,935,9,999999999,86,0.2200,0,88,0.160,0.0,0.0
2016,7,21,22,3,?9?9?9?9E0?9?9?9*9*9?9?9?9?9?9?9*9?9*9*9?9*9,24.30,22.40,89,95499,0,0,395,0,0,0,0,0,0,0,217,0.0,9,9,8333.0,935,9,999999999,86,0.2200,0,88,0.160,0.0,0.0
2016,7,21,22,4,?9?9?9?9E0?9?9?9*9*9?9?9?9?9?9?9*9?9*9*9?9*9,24.30,22.40,89,95499,0,0,395,0,0,0,0,0,0,0,217,0.0,9,9,8333.0,935,9,999999999,86,0.2200,0,88,0.160,0.0,0.0
2016,7,21,22,5,?9?9?9?9E0?9?9?9*9*9?9?9?9?9?9?9*9?9*9*9?9*9,24.30,22.40,89,95499,0,0,395,0,0,0,0,0,0,0,217,0.0,9,9,8333.0,935,9,999999999,86,0.2200,0,88,0.160,0.0,0.0
2016,7,21,22,6,?9?9?9?9E0?9?9?9*9*9?9?9?9?9?9?9*9?9*9*9?9*9,24.30,22.40,89,95499,0,0,395,0,0,0,0,0,0,0,217,0.0,9,9,8333.0,935,9,999999999,86,0.2200,0,88,0.160,0.0,0.0
2016,7,21,22,7,?9?9?9?9E0?9?9?9*9*9?9?9?9?9?9?9*9?9*9*9?9*9,24.30,22.40,89,95499,0,0,395,0,0,0,0,0,0,0,217,0.0,9,9,8333.0,935,9,999999999,86,0.2200,0,88,0.160,0.0,0.0
2016,7,21,22,8,?9?9?9?9E0?9?9?9*9*9?9?9?9?9?9?9*9?9*9*9?9*9,24.30,22.40,89,95499,0,0,395,0,0,0,0,0,0,0,217,0.0,9,9,8333.0,935,9,999999999,86,0.2200,0,88,0.160,0.0,0.0
2016,7,21,22,9,?9?9?9?9E0?9?9?9*9*9?9?9?9?9?9?9*9?9*9*9?9*9,24.30,22.40,89,95499,0,0,395,0,0,0,0,0,0,0,217,0.0,9,9,8333.0,935,9,999999999,86,0.2200,0,88,0.160,0.0,0.0
2016,7,21,22,10,?9?9?9?9E0?9?9?9*9*9?9?9?9?9?9?9*9?9*9*9?9*9,24.30,22.40,89,95499,0,0,395,0,0,0,0,0,0,0,217,0.0,9,9,8333.0,935,9,999999999,86,0.2200,0,88,0.160,0.0,0.0
2016,7,21,22,11,?9?9?9?9E0?9?9?9*9*9?9?9?9?9?9?9*9?9*9*9?9*9,24.30,22.40,89,95499,0,0,395,0,0,0,0,0,0,0,217,0.0,9,9,8333.0,935,9,999999999,86,0.2200,0,88,0.160,0.0,0.0
2016,7,21,22,12,?9?9?9?9E0?9?9?9*9*9?9?9?9?9?9?9*9?9*9*9?9*9,24.30,22.40,89,95499,0,0,395,0,0,0,0,0,0,0,217,0.0,9,9,8333.0,935,9,999999999,86,0.2200,0,88,0.160,0.0,0.0
2016,7,21,22,13,?9?9?9?9E0?9?9?9*9*9?9?9?9?9?9?9*9?9*9*9?9*9,24.30,22.40,89,95499,0,0,395,0,0,0,0,0,0,0,217,0.0,9,9,8333.0,935,9,999999999,86,0.2200,0,88,0.160,0.0,0.0
2016,7,21,22,14,?9?9?9?9E0?9?9?9*9*9?9?9?9?9?9?9*9?9*9*9?9*9,24.30,22.40,89,95499,0,0,395,0,0,0,0,0,0,0,217,0.0,9,9,8333.0,935,9,999999999,86,0.2200,0,88,0.160,0.0,0.0
2016,7,21,22,15,?9?9?9?9E0?9?9?9*9*9?9?9?9?9?9?9*9?9*9*9?9*9,24.30,22.40,89,95499,0,0,395,0,0,0,0,0,0,0,217,0.0,9,9,8333.0,935,9,999999999,86,0.2200,0,88,0.160,0.0,0.0
2016,7,21,22,16,?9?9?9?9E0?9?9?9*9*9?9?9?9?9?9?9*9?9*9*9?9*9,24.30,22.40,89,95499,0,0,395,0,0,0,0,0,0,0,217,0.0,9,9,8333.0,935,9,999999999,86,0.2200,0,88,0.160,0.0,0.0
2016,7,21,22,17,?9?9?9?9E0?9?9?9*9*9?9?9?9?9?9?9*9?9*9*9?9*9,24.30,22.40,89,95499,0,0,395,0,0,0,0,0,0,0,217,0.0,9,9,8333.0,935,9,999999999,86,0.2200,0,88,0.160,0.0,0.0
2016,7,21,22,18,?9?9?9?9E0?9?9?9*9*9?9?9?9?9?9?9*9?9*9*9?9*9,24.30,22.40,89,95499,0,0,395,0,0,0,0,0,0,0,217,0.0,9,9,8333.0,935,9,999999999,86,0.2200,0,88,0.160,0.0,0.0
2016,7,21,22,19,?9?9?9?9E0?9?9?9*9*9?9?9?9?9?9?9*9?9*9*9?9*9,24.30,22.40,89,95499,0,0,395,0,0,0,0,0,0,0,217,0.0,9,9,8333.0,935,9,999999999,86,0.2200,0,88,0.160,0.0,0.0
2016,7,21,22,20,?9?9?9?9E0?9?9?9*9*9?9?9?9?9?9?9*9?9*9*9?9*9,24.30,22.40,89,95499,0,0,395,0,0,0,0,0,0,0,217,0.0,9,9,8333.0,935,9,999999999,86,0.2200,0,88,0.160,0.0,0.0
2016,7,21,22,21,?9?9?9?9E0?9?9?9*9*9?9?9?9?9?9?9*9?9*9*9?9*9,24.30,22.40,89,95499,0,0,395,0,0,0,0,0,0,0,217,0.0,9,9,8333.0,935,9,999999999,86,0.2200,0,88,0.160,0.0,0.0
2016,7,21,22,22,?9?9?9?9E0?9?9?9*9*9?9?9?9?9?9?9*9?9*9*9?9*9,24.30,22.40,89,95499,0,0,395,0,0,0,0,0,0,0,217,0.0,9,9,8333.0,935,9,999999999,86,0.2200,0,88,0.160,0.0,0.0
2016,7,21,22,23,?9?9?9?9E0?9?9?9*9*9?9?9?9?9?9?9*9?9*9*9?9*9,24.30,22.40,89,95499,0,0,395,0,0,0,0,0,0,0,217,0.0,9,9,8333.0,935,9,999999999,86,0.2200,0,88,0.160,0.0,0.0
2016,7,21,22,24,?9?9?9?9E0?9?9?9*9*9?9?9?9?9?9?9*9?9*9*9?9*9,24.30,22.40,89,95499,0,0,395,0,0,0,0,0,0,0,217,0.0,9,9,8333.0,935,9,999999999,86,0.2200,0,88,0.160,0.0,0.0
2016,7,21,22,25,?9?9?9?9E0?9?9?9*9*9?9?9?9?9?9?9*9?9*9*9?9*9,24.30,22.40,89,95499,0,0,395,0,0,0,0,0,0,0,217,0.0,9,9,8333.0,935,9,999999999,86,0.2200,0,88,0.160,0.0,0.0
2016,7,21,22,26,?9?9?9?9E0?9?9?9*9*9?9?9?9?9?9?9*9?9*9*9?9*9,24.30,22.40,89,95499,0,0,395,0,0,0,0,0,0,0,217,0.0,9,9,8333.0,935,9,999999999,86,0.2200,0,88,0.160,0.0,0.0
2016,7,21,22,27,?9?9?9?9E0?9?9?9*9*9?9?9?9?9?9?9*9?9*9*9?9*9,24.30,22.40,89,95499,0,0,395,0,0,0,0,0,0,0,217,0.0,9,9,8333.0,935,9,999999999,86,0.2200,0,88,0.160,0.0,0.0
2016,7,21,22,28,?9?9?9?9E0?9?9?9*9*9?9?9?9?9?9?9*9?9*9*9?9*9,24.30,22.40,89,95499,0,0,395,0,0,0,0,0,0,0,217,0.0,9,9,8333.0,935,9,999999999,86,0.2200,0,88,0.160,0.0,0.0
2016,7,21,22,29,?9?9?9?9E0?9?9?9*9*9?9?9?9?9?9?9*9?9*9*9?9*9,24.30,22.40,89,95499,0,0,395,0,0,0,0,0,0,0,217,0.0,9,9,8333.0,935,9,999999999,86,0.2200,0,88,0.160,0.0,0.0
2016,7,21,22,30,?9?9?9?9E0?9?9?9*9*9?9?9?9?9?9?9*9?9*9*9?9*9,24.30,22.40,89,95499,0,0,395,0,0,0,0,0,0,0,217,0.0,9,9,8333.0,935,9,999999999,86,0.2200,0,88,0.160,0.0,0.0
2016,7,21,22,31,?9?9?9?9E0?9?9?9*9*9?9?9?9?9?9?9*9?9*9*9?9*9,24.30,22.40,89,95499,0,0,395,0,0,0,0,0,0,0,217,0.0,9,9,8333.0,935,9,999999999,86,0.2200,0,88,0.160,0.0,0.0
2016,7,21,22,32,?9?9?9?9E0?9?9?9*9*9?9?9?9?9?9?9*9?9*9*9?9*9,24.30,22.40,89,95499,0,0,395,0,0,0,0,0,0,0,217,0.0,9,9,8333.0,935,9,999999999,86,0.2200,0,88,0.160,0.0,0.0
2016,7,21,22,33,?9?9?9?9E0?9?9?9*9*9?9?9?9?9?9?9*9?9*9*9?9*9,24.30,22.40,89,95499,0,0,395,0,0,0,0,0,0,0,217,0.0,9,9,8333.0,935,9,999999999,86,0.2200,0,88,0.160,0.0,0.0
2016,7,21,22,34,?9?9?9?9E0?9?9?9*9*9?9?9?9?9?9?9*9?9*9*9?9*9,24.30,22.40,89,95499,0,0,395,0,0,0,0,0,0,0,217,0.0,9,9,8333.0,935,9,999999999,86,0.2200,0,88,0.160,0.0,0.0
2016,7,21,22,35,?9?9?9?9E0?9?9?9*9*9?9?9?9?9?9?9*9?9*9*9?9*9,24.30,22.40,89,95499,0,0,395,0,0,0,0,0,0,0,217,0.0,9,9,8333.0,935,9,999999999,86,0.2200,0,88,0.160,0.0,0.0
2016,7,21,22,36,?9?9?9?9E0?9?9?9*9*9?9?9?9?9?9?9*9?9*9*9?9*9,24.30,22.40,89,95499,0,0,395,0,0,0,0,0,0,0,217,0.0,9,9,8333.0,935,9,999999999,86,0.2200,0,88,0.160,0.0,0.0
2016,7,21,22,37,?9?9?9?9E0?9?9?9*9*9?9?9?9?9?9?9*9?9*9*9?9*9,24.30,22.40,89,95499,0,0,395,0,0,0,0,0,0,0,217,0.0,9,9,8333.0,935,9,999999999,86,0.2200,0,88,0.160,0.0,0.0
2016,7,21,22,38,?9?9?9?9E0?9?9?9*9*9?9?9?9?9?9?9*9?9*9*9?9*9,24.30,22.40,89,95499,0,0,395,0,0,0,0,0,0,0,217,0.0,9,9,8333.0,935,9,999999999,86,0.2200,0,88,0.160,0.0,0.0
2016,7,21,22,39,?9?9?9?9E0?9?9?9*9*9?9?9?9?9?9?9*9?9*9*9?9*9,24.30,22.40,89,95499,0,0,395,0,0,0,0,0,0,0,217,0.0,9,9,8333.0,935,9,999999999,86,0.2200,0,88,0.160,0.0,0.0
2016,7,21,22,40,?9?9?9?9E0?9?9?9*9*9?9?9?9?9?9?9*9?9*9*9?9*9,24.30,22.40,89,95499,0,0,395,0,0,0,0,0,0,0,217,0.0,9,9,8333.0,935,9,999999999,86,0.2200,0,88,0.160,0.0,0.0
2016,7,21,22,41,?9?9?9?9E0?9?9?9*9*9?9?9?9?9?9?9*9?9*9*9?9*9,24.30,22.40,89,95499,0,0,395,0,0,0,0,0,0,0,217,0.0,9,9,8333.0,935,9,999999999,86,0.2200,0,88,0.160,0.0,0.0
2016,7,21,22,42,?9?9?9?9E0?9?9?9*9*9?9?9?9?9?9?9*9?9*9*9?9*9,24.30,22.40,89,95499,0,0,395,0,0,0,0,0,0,0,217,0.0,9,9,8333.0,935,9,999999999,86,0.2200,0,88,0.160,0.0,0.0
2016,7,21,22,43,?9?9?9?9E0?9?9?9*9*9?9?9?9?9?9?9*9?9*9*9?9*9,24.30,22.40,89,95499,0,0,395,0,0,0,0,0,0,0,217,0.0,9,9,8333.0,935,9,999999999,86,0.2200,0,88,0.160,0.0,0.0
2016,7,21,22,44,?9?9?9?9E0?9?9?9*9*9?9?9?9?9?9?9*9?9*9*9?9*9,24.30,22.40,89,95499,0,0,395,0,0,0,0,0,0,0,217,0.0,9,9,8333.0,935,9,999999999,86,0.2200,0,88,0.160,0.0,0.0
2016,7,21,22,45,?9?9?9?9E0?9?9?9*9*9?9?9?9?9?9?9*9?9*9*9?9*9,24.30,22.40,89,95499,0,0,395,0,0,0,0,0,0,0,217,0.0,9,9,8333.0,935,9,999999999,86,0.2200,0,88,0.160,0.0,0.0
2016,7,21,22,46,?9?9?9?9E0?9?9?9*9*9?9?9?9?9?9?9*9?9*9*9?9*9,24.30,22.40,89,95499,0,0,395,0,0,0,0,0,0,0,217,0.0,9,9,8333.0,935,9,999999999,86,0.2200,0,88,0.160,0.0,0.0
2016,7,21,22,47,?9?9?9?9E0?9?9?9*9*9?9?9?9?9?9?9*9?9*9*9?9*9,24.30,22.40,89,95499,0,0,395,0,0,0,0,0,0,0,217,0.0,9,9,8333.0,935,9,999999999,86,0.2200,0,88,0.160,0.0,0.0
2016,7,21,22,48,?9?9?9?9E0?9?9?9*9*9?9?9?9?9?9?9*9?9*9*9?9*9,24.30,22.40,89,95499,0,0,395,0,0,0,0,0,0,0,217,0.0,9,9,8333.0,935,9,999999999,86,0.2200,0,88,0.160,0.0,0.0
2016,7,21,22,49,?9?9?9?9E0?9?9?9*9*9?9?9?9?9?9?9*9?9*9*9?9*9,24.30,22.40,89,95499,0,0,395,0,0,0,0,0,0,0,217,0.0,9,9,8333.0,935,9,999999999,86,0.2200,0,88,0.160,0.0,0.0
2016,7,21,22,50,?9?9?9?9E0?9?9?9*9*9?9?9?9?9?9?9*9?9*9*9?9*9,24.30,22.40,89,95499,0,0,395,0,0,0,0,0,0,0,217,0.0,9,9,8333.0,935,9,999999999,86,0.2200,0,88,0.160,0.0,0.0
2016,7,21,22,51,?9?9?9?9E0?9?9?9*9*9?9?9?9?9?9?9*9?9*9*9?9*9,24.30,22.40,89,95499,0,0,395,0,0,0,0,0,0,0,217,0.0,9,9,8333.0,935,9,999999999,86,0.2200,0,88,0.160,0.0,0.0
2016,7,21,22,52,?9?9?9?9E0?9?9?9*9*9?9?9?9?9?9?9*9?9*9*9?9*9,24.30,22.40,89,95499,0,0,395,0,0,0,0,0,0,0,217,0.0,9,9,8333.0,935,9,999999999,86,0.2200,0,88,0.160,0.0,0.0
2016,7,21,22,53,?9?9?9?9E0?9?9?9*9*9?9?9?9?9?9?9*9?9*9*9?9*9,24.30,22.40,89,95499,0,0,395,0,0,0,0,0,0,0,217,0.0,9,9,8333.0,935,9,999999999,86,0.2200,0,88,0.160,0.0,0.0
2016,7,21,22,54,?9?9?9?9E0?9?9?9*9*9?9?9?9?9?9?9*9?9*9*9?9*9,24.30,22.40,89,95499,0,0,395,0,0,0,0,0,0,0,217,0.0,9,9,8333.0,935,9,999999999,86,0.2200,0,88,0.160,0.0,0.0
2016,7,21,22,55,?9?9?9?9E0?9?9?9*9*9?9?9?9?9?9?9*9?9*9*9?9*9,24.30,22.40,89,95499,0,0,395,0,0,0,0,0,0,0,217,0.0,9,9,8333.0,935,9,999999999,86,0.2200,0,88,0.160,0.0,0.0
2016,7,21,22,56,?9?9?9?9E0?9?9?9*9*9?9?9?9?9?9?9*9?9*9*9?9*9,24.30,22.40,89,95499,0,0,395,0,0,0,0,0,0,0,217,0.0,9,9,8333.0,935,9,999999999,86,0.2200,0,88,0.160,0.0,0.0
2016,7,21,22,57,?9?9?9?9E0?9?9?9*9*9?9?9?9?9?9?9*9?9*9*9?9*9,24.30,22.40,89,95499,0,0,395,0,0,0,0,0,0,0,217,0.0,9,9,8333.0,935,9,999999999,86,0.2200,0,88,0.160,0.0,0.0
2016,7,21,22,58,?9?9?9?9E0?9?9?9*9*9?9?9?9?9?9?9*9?9*9*9?9*9,24.30,22.40,89,95499,0,0,395,0,0,0,0,0,0,0,217,0.0,9,9,8333.0,935,9,999999999,86,0.2200,0,88,0.160,0.0,0.0
2016,7,21,22,59,?9?9?9?9E0?9?9?9*9*9?9?9?9?9?9?9*9?9*9*9?9*9,24.30,22.40,89,95499,0,0,395,0,0,0,0,0,0,0,217,0.0,9,9,8333.0,935,9,999999999,86,0.2200,0,88,0.160,0.0,0.0
2016,7,21,22,60,?9?9?9?9E0?9?9?9*9*9?9?9?9?9?9?9*9?9*9*9?9*9,24.30,22.40,89,95499,0,0,395,0,0,0,0,0,0,0,217,0.0,9,9,8333.0,935,9,999999999,86,0.2200,0,88,0.160,0.0,0.0
2016,7,21,23,1,?9?9?9?9E0?9?9?9*9*9?9?9?9?9?9?9*9?9*9*9?9*9,23.90,22.20,90,95521,0,0,394,0,0,0,0,0,0,0,219,0.0,9,9,8333.0,407,9,999999999,85,0.2200,0,88,0.160,0.0,0.0
2016,7,21,23,2,?9?9?9?9E0?9?9?9*9*9?9?9?9?9?9?9*9?9*9*9?9*9,23.90,22.20,90,95521,0,0,394,0,0,0,0,0,0,0,219,0.0,9,9,8333.0,407,9,999999999,85,0.2200,0,88,0.160,0.0,0.0
2016,7,21,23,3,?9?9?9?9E0?9?9?9*9*9?9?9?9?9?9?9*9?9*9*9?9*9,23.90,22.20,90,95521,0,0,394,0,0,0,0,0,0,0,219,0.0,9,9,8333.0,407,9,999999999,85,0.2200,0,88,0.160,0.0,0.0
2016,7,21,23,4,?9?9?9?9E0?9?9?9*9*9?9?9?9?9?9?9*9?9*9*9?9*9,23.90,22.20,90,95521,0,0,394,0,0,0,0,0,0,0,219,0.0,9,9,8333.0,407,9,999999999,85,0.2200,0,88,0.160,0.0,0.0
2016,7,21,23,5,?9?9?9?9E0?9?9?9*9*9?9?9?9?9?9?9*9?9*9*9?9*9,23.90,22.20,90,95521,0,0,394,0,0,0,0,0,0,0,219,0.0,9,9,8333.0,407,9,999999999,85,0.2200,0,88,0.160,0.0,0.0
2016,7,21,23,6,?9?9?9?9E0?9?9?9*9*9?9?9?9?9?9?9*9?9*9*9?9*9,23.90,22.20,90,95521,0,0,394,0,0,0,0,0,0,0,219,0.0,9,9,8333.0,407,9,999999999,85,0.2200,0,88,0.160,0.0,0.0
2016,7,21,23,7,?9?9?9?9E0?9?9?9*9*9?9?9?9?9?9?9*9?9*9*9?9*9,23.90,22.20,90,95521,0,0,394,0,0,0,0,0,0,0,219,0.0,9,9,8333.0,407,9,999999999,85,0.2200,0,88,0.160,0.0,0.0
2016,7,21,23,8,?9?9?9?9E0?9?9?9*9*9?9?9?9?9?9?9*9?9*9*9?9*9,23.90,22.20,90,95521,0,0,394,0,0,0,0,0,0,0,219,0.0,9,9,8333.0,407,9,999999999,85,0.2200,0,88,0.160,0.0,0.0
2016,7,21,23,9,?9?9?9?9E0?9?9?9*9*9?9?9?9?9?9?9*9?9*9*9?9*9,23.90,22.20,90,95521,0,0,394,0,0,0,0,0,0,0,219,0.0,9,9,8333.0,407,9,999999999,85,0.2200,0,88,0.160,0.0,0.0
2016,7,21,23,10,?9?9?9?9E0?9?9?9*9*9?9?9?9?9?9?9*9?9*9*9?9*9,23.90,22.20,90,95521,0,0,394,0,0,0,0,0,0,0,219,0.0,9,9,8333.0,407,9,999999999,85,0.2200,0,88,0.160,0.0,0.0
2016,7,21,23,11,?9?9?9?9E0?9?9?9*9*9?9?9?9?9?9?9*9?9*9*9?9*9,23.90,22.20,90,95521,0,0,394,0,0,0,0,0,0,0,219,0.0,9,9,8333.0,407,9,999999999,85,0.2200,0,88,0.160,0.0,0.0
2016,7,21,23,12,?9?9?9?9E0?9?9?9*9*9?9?9?9?9?9?9*9?9*9*9?9*9,23.90,22.20,90,95521,0,0,394,0,0,0,0,0,0,0,219,0.0,9,9,8333.0,407,9,999999999,85,0.2200,0,88,0.160,0.0,0.0
2016,7,21,23,13,?9?9?9?9E0?9?9?9*9*9?9?9?9?9?9?9*9?9*9*9?9*9,23.90,22.20,90,95521,0,0,394,0,0,0,0,0,0,0,219,0.0,9,9,8333.0,407,9,999999999,85,0.2200,0,88,0.160,0.0,0.0
2016,7,21,23,14,?9?9?9?9E0?9?9?9*9*9?9?9?9?9?9?9*9?9*9*9?9*9,23.90,22.20,90,95521,0,0,394,0,0,0,0,0,0,0,219,0.0,9,9,8333.0,407,9,999999999,85,0.2200,0,88,0.160,0.0,0.0
2016,7,21,23,15,?9?9?9?9E0?9?9?9*9*9?9?9?9?9?9?9*9?9*9*9?9*9,23.90,22.20,90,95521,0,0,394,0,0,0,0,0,0,0,219,0.0,9,9,8333.0,407,9,999999999,85,0.2200,0,88,0.160,0.0,0.0
2016,7,21,23,16,?9?9?9?9E0?9?9?9*9*9?9?9?9?9?9?9*9?9*9*9?9*9,23.90,22.20,90,95521,0,0,394,0,0,0,0,0,0,0,219,0.0,9,9,8333.0,407,9,999999999,85,0.2200,0,88,0.160,0.0,0.0
2016,7,21,23,17,?9?9?9?9E0?9?9?9*9*9?9?9?9?9?9?9*9?9*9*9?9*9,23.90,22.20,90,95521,0,0,394,0,0,0,0,0,0,0,219,0.0,9,9,8333.0,407,9,999999999,85,0.2200,0,88,0.160,0.0,0.0
2016,7,21,23,18,?9?9?9?9E0?9?9?9*9*9?9?9?9?9?9?9*9?9*9*9?9*9,23.90,22.20,90,95521,0,0,394,0,0,0,0,0,0,0,219,0.0,9,9,8333.0,407,9,999999999,85,0.2200,0,88,0.160,0.0,0.0
2016,7,21,23,19,?9?9?9?9E0?9?9?9*9*9?9?9?9?9?9?9*9?9*9*9?9*9,23.90,22.20,90,95521,0,0,394,0,0,0,0,0,0,0,219,0.0,9,9,8333.0,407,9,999999999,85,0.2200,0,88,0.160,0.0,0.0
2016,7,21,23,20,?9?9?9?9E0?9?9?9*9*9?9?9?9?9?9?9*9?9*9*9?9*9,23.90,22.20,90,95521,0,0,394,0,0,0,0,0,0,0,219,0.0,9,9,8333.0,407,9,999999999,85,0.2200,0,88,0.160,0.0,0.0
2016,7,21,23,21,?9?9?9?9E0?9?9?9*9*9?9?9?9?9?9?9*9?9*9*9?9*9,23.90,22.20,90,95521,0,0,394,0,0,0,0,0,0,0,219,0.0,9,9,8333.0,407,9,999999999,85,0.2200,0,88,0.160,0.0,0.0
2016,7,21,23,22,?9?9?9?9E0?9?9?9*9*9?9?9?9?9?9?9*9?9*9*9?9*9,23.90,22.20,90,95521,0,0,394,0,0,0,0,0,0,0,219,0.0,9,9,8333.0,407,9,999999999,85,0.2200,0,88,0.160,0.0,0.0
2016,7,21,23,23,?9?9?9?9E0?9?9?9*9*9?9?9?9?9?9?9*9?9*9*9?9*9,23.90,22.20,90,95521,0,0,394,0,0,0,0,0,0,0,219,0.0,9,9,8333.0,407,9,999999999,85,0.2200,0,88,0.160,0.0,0.0
2016,7,21,23,24,?9?9?9?9E0?9?9?9*9*9?9?9?9?9?9?9*9?9*9*9?9*9,23.90,22.20,90,95521,0,0,394,0,0,0,0,0,0,0,219,0.0,9,9,8333.0,407,9,999999999,85,0.2200,0,88,0.160,0.0,0.0
2016,7,21,23,25,?9?9?9?9E0?9?9?9*9*9?9?9?9?9?9?9*9?9*9*9?9*9,23.90,22.20,90,95521,0,0,394,0,0,0,0,0,0,0,219,0.0,9,9,8333.0,407,9,999999999,85,0.2200,0,88,0.160,0.0,0.0
2016,7,21,23,26,?9?9?9?9E0?9?9?9*9*9?9?9?9?9?9?9*9?9*9*9?9*9,23.90,22.20,90,95521,0,0,394,0,0,0,0,0,0,0,219,0.0,9,9,8333.0,407,9,999999999,85,0.2200,0,88,0.160,0.0,0.0
2016,7,21,23,27,?9?9?9?9E0?9?9?9*9*9?9?9?9?9?9?9*9?9*9*9?9*9,23.90,22.20,90,95521,0,0,394,0,0,0,0,0,0,0,219,0.0,9,9,8333.0,407,9,999999999,85,0.2200,0,88,0.160,0.0,0.0
2016,7,21,23,28,?9?9?9?9E0?9?9?9*9*9?9?9?9?9?9?9*9?9*9*9?9*9,23.90,22.20,90,95521,0,0,394,0,0,0,0,0,0,0,219,0.0,9,9,8333.0,407,9,999999999,85,0.2200,0,88,0.160,0.0,0.0
2016,7,21,23,29,?9?9?9?9E0?9?9?9*9*9?9?9?9?9?9?9*9?9*9*9?9*9,23.90,22.20,90,95521,0,0,394,0,0,0,0,0,0,0,219,0.0,9,9,8333.0,407,9,999999999,85,0.2200,0,88,0.160,0.0,0.0
2016,7,21,23,30,?9?9?9?9E0?9?9?9*9*9?9?9?9?9?9?9*9?9*9*9?9*9,23.90,22.20,90,95521,0,0,394,0,0,0,0,0,0,0,219,0.0,9,9,8333.0,407,9,999999999,85,0.2200,0,88,0.160,0.0,0.0
2016,7,21,23,31,?9?9?9?9E0?9?9?9*9*9?9?9?9?9?9?9*9?9*9*9?9*9,23.90,22.20,90,95521,0,0,394,0,0,0,0,0,0,0,219,0.0,9,9,8333.0,407,9,999999999,85,0.2200,0,88,0.160,0.0,0.0
2016,7,21,23,32,?9?9?9?9E0?9?9?9*9*9?9?9?9?9?9?9*9?9*9*9?9*9,23.90,22.20,90,95521,0,0,394,0,0,0,0,0,0,0,219,0.0,9,9,8333.0,407,9,999999999,85,0.2200,0,88,0.160,0.0,0.0
2016,7,21,23,33,?9?9?9?9E0?9?9?9*9*9?9?9?9?9?9?9*9?9*9*9?9*9,23.90,22.20,90,95521,0,0,394,0,0,0,0,0,0,0,219,0.0,9,9,8333.0,407,9,999999999,85,0.2200,0,88,0.160,0.0,0.0
2016,7,21,23,34,?9?9?9?9E0?9?9?9*9*9?9?9?9?9?9?9*9?9*9*9?9*9,23.90,22.20,90,95521,0,0,394,0,0,0,0,0,0,0,219,0.0,9,9,8333.0,407,9,999999999,85,0.2200,0,88,0.160,0.0,0.0
2016,7,21,23,35,?9?9?9?9E0?9?9?9*9*9?9?9?9?9?9?9*9?9*9*9?9*9,23.90,22.20,90,95521,0,0,394,0,0,0,0,0,0,0,219,0.0,9,9,8333.0,407,9,999999999,85,0.2200,0,88,0.160,0.0,0.0
2016,7,21,23,36,?9?9?9?9E0?9?9?9*9*9?9?9?9?9?9?9*9?9*9*9?9*9,23.90,22.20,90,95521,0,0,394,0,0,0,0,0,0,0,219,0.0,9,9,8333.0,407,9,999999999,85,0.2200,0,88,0.160,0.0,0.0
2016,7,21,23,37,?9?9?9?9E0?9?9?9*9*9?9?9?9?9?9?9*9?9*9*9?9*9,23.90,22.20,90,95521,0,0,394,0,0,0,0,0,0,0,219,0.0,9,9,8333.0,407,9,999999999,85,0.2200,0,88,0.160,0.0,0.0
2016,7,21,23,38,?9?9?9?9E0?9?9?9*9*9?9?9?9?9?9?9*9?9*9*9?9*9,23.90,22.20,90,95521,0,0,394,0,0,0,0,0,0,0,219,0.0,9,9,8333.0,407,9,999999999,85,0.2200,0,88,0.160,0.0,0.0
2016,7,21,23,39,?9?9?9?9E0?9?9?9*9*9?9?9?9?9?9?9*9?9*9*9?9*9,23.90,22.20,90,95521,0,0,394,0,0,0,0,0,0,0,219,0.0,9,9,8333.0,407,9,999999999,85,0.2200,0,88,0.160,0.0,0.0
2016,7,21,23,40,?9?9?9?9E0?9?9?9*9*9?9?9?9?9?9?9*9?9*9*9?9*9,23.90,22.20,90,95521,0,0,394,0,0,0,0,0,0,0,219,0.0,9,9,8333.0,407,9,999999999,85,0.2200,0,88,0.160,0.0,0.0
2016,7,21,23,41,?9?9?9?9E0?9?9?9*9*9?9?9?9?9?9?9*9?9*9*9?9*9,23.90,22.20,90,95521,0,0,394,0,0,0,0,0,0,0,219,0.0,9,9,8333.0,407,9,999999999,85,0.2200,0,88,0.160,0.0,0.0
2016,7,21,23,42,?9?9?9?9E0?9?9?9*9*9?9?9?9?9?9?9*9?9*9*9?9*9,23.90,22.20,90,95521,0,0,394,0,0,0,0,0,0,0,219,0.0,9,9,8333.0,407,9,999999999,85,0.2200,0,88,0.160,0.0,0.0
2016,7,21,23,43,?9?9?9?9E0?9?9?9*9*9?9?9?9?9?9?9*9?9*9*9?9*9,23.90,22.20,90,95521,0,0,394,0,0,0,0,0,0,0,219,0.0,9,9,8333.0,407,9,999999999,85,0.2200,0,88,0.160,0.0,0.0
2016,7,21,23,44,?9?9?9?9E0?9?9?9*9*9?9?9?9?9?9?9*9?9*9*9?9*9,23.90,22.20,90,95521,0,0,394,0,0,0,0,0,0,0,219,0.0,9,9,8333.0,407,9,999999999,85,0.2200,0,88,0.160,0.0,0.0
2016,7,21,23,45,?9?9?9?9E0?9?9?9*9*9?9?9?9?9?9?9*9?9*9*9?9*9,23.90,22.20,90,95521,0,0,394,0,0,0,0,0,0,0,219,0.0,9,9,8333.0,407,9,999999999,85,0.2200,0,88,0.160,0.0,0.0
2016,7,21,23,46,?9?9?9?9E0?9?9?9*9*9?9?9?9?9?9?9*9?9*9*9?9*9,23.90,22.20,90,95521,0,0,394,0,0,0,0,0,0,0,219,0.0,9,9,8333.0,407,9,999999999,85,0.2200,0,88,0.160,0.0,0.0
2016,7,21,23,47,?9?9?9?9E0?9?9?9*9*9?9?9?9?9?9?9*9?9*9*9?9*9,23.90,22.20,90,95521,0,0,394,0,0,0,0,0,0,0,219,0.0,9,9,8333.0,407,9,999999999,85,0.2200,0,88,0.160,0.0,0.0
2016,7,21,23,48,?9?9?9?9E0?9?9?9*9*9?9?9?9?9?9?9*9?9*9*9?9*9,23.90,22.20,90,95521,0,0,394,0,0,0,0,0,0,0,219,0.0,9,9,8333.0,407,9,999999999,85,0.2200,0,88,0.160,0.0,0.0
2016,7,21,23,49,?9?9?9?9E0?9?9?9*9*9?9?9?9?9?9?9*9?9*9*9?9*9,23.90,22.20,90,95521,0,0,394,0,0,0,0,0,0,0,219,0.0,9,9,8333.0,407,9,999999999,85,0.2200,0,88,0.160,0.0,0.0
2016,7,21,23,50,?9?9?9?9E0?9?9?9*9*9?9?9?9?9?9?9*9?9*9*9?9*9,23.90,22.20,90,95521,0,0,394,0,0,0,0,0,0,0,219,0.0,9,9,8333.0,407,9,999999999,85,0.2200,0,88,0.160,0.0,0.0
2016,7,21,23,51,?9?9?9?9E0?9?9?9*9*9?9?9?9?9?9?9*9?9*9*9?9*9,23.90,22.20,90,95521,0,0,394,0,0,0,0,0,0,0,219,0.0,9,9,8333.0,407,9,999999999,85,0.2200,0,88,0.160,0.0,0.0
2016,7,21,23,52,?9?9?9?9E0?9?9?9*9*9?9?9?9?9?9?9*9?9*9*9?9*9,23.90,22.20,90,95521,0,0,394,0,0,0,0,0,0,0,219,0.0,9,9,8333.0,407,9,999999999,85,0.2200,0,88,0.160,0.0,0.0
2016,7,21,23,53,?9?9?9?9E0?9?9?9*9*9?9?9?9?9?9?9*9?9*9*9?9*9,23.90,22.20,90,95521,0,0,394,0,0,0,0,0,0,0,219,0.0,9,9,8333.0,407,9,999999999,85,0.2200,0,88,0.160,0.0,0.0
2016,7,21,23,54,?9?9?9?9E0?9?9?9*9*9?9?9?9?9?9?9*9?9*9*9?9*9,23.90,22.20,90,95521,0,0,394,0,0,0,0,0,0,0,219,0.0,9,9,8333.0,407,9,999999999,85,0.2200,0,88,0.160,0.0,0.0
2016,7,21,23,55,?9?9?9?9E0?9?9?9*9*9?9?9?9?9?9?9*9?9*9*9?9*9,23.90,22.20,90,95521,0,0,394,0,0,0,0,0,0,0,219,0.0,9,9,8333.0,407,9,999999999,85,0.2200,0,88,0.160,0.0,0.0
2016,7,21,23,56,?9?9?9?9E0?9?9?9*9*9?9?9?9?9?9?9*9?9*9*9?9*9,23.90,22.20,90,95521,0,0,394,0,0,0,0,0,0,0,219,0.0,9,9,8333.0,407,9,999999999,85,0.2200,0,88,0.160,0.0,0.0
2016,7,21,23,57,?9?9?9?9E0?9?9?9*9*9?9?9?9?9?9?9*9?9*9*9?9*9,23.90,22.20,90,95521,0,0,394,0,0,0,0,0,0,0,219,0.0,9,9,8333.0,407,9,999999999,85,0.2200,0,88,0.160,0.0,0.0
2016,7,21,23,58,?9?9?9?9E0?9?9?9*9*9?9?9?9?9?9?9*9?9*9*9?9*9,23.90,22.20,90,95521,0,0,394,0,0,0,0,0,0,0,219,0.0,9,9,8333.0,407,9,999999999,85,0.2200,0,88,0.160,0.0,0.0
2016,7,21,23,59,?9?9?9?9E0?9?9?9*9*9?9?9?9?9?9?9*9?9*9*9?9*9,23.90,22.20,90,95521,0,0,394,0,0,0,0,0,0,0,219,0.0,9,9,8333.0,407,9,999999999,85,0.2200,0,88,0.160,0.0,0.0
2016,7,21,23,60,?9?9?9?9E0?9?9?9*9*9?9?9?9?9?9?9*9?9*9*9?9*9,23.90,22.20,90,95521,0,0,394,0,0,0,0,0,0,0,219,0.0,9,9,8333.0,407,9,999999999,85,0.2200,0,88,0.160,0.0,0.0
2016,7,21,24,1,?9?9?9?9E0?9?9?9?9?9?9?9?9?9?9?9*9?9*9*9?9*9,23.50,22.10,92,95542,0,0,403,0,0,0,0,0,0,0,218,0.0,9,9,8333.0,9000,9,999999999,84,0.2200,0,88,0.160,0.0,0.0
2016,7,21,24,2,?9?9?9?9E0?9?9?9?9?9?9?9?9?9?9?9*9?9*9*9?9*9,23.50,22.10,92,95542,0,0,403,0,0,0,0,0,0,0,218,0.0,9,9,8333.0,9000,9,999999999,84,0.2200,0,88,0.160,0.0,0.0
2016,7,21,24,3,?9?9?9?9E0?9?9?9?9?9?9?9?9?9?9?9*9?9*9*9?9*9,23.50,22.10,92,95542,0,0,403,0,0,0,0,0,0,0,218,0.0,9,9,8333.0,9000,9,999999999,84,0.2200,0,88,0.160,0.0,0.0
2016,7,21,24,4,?9?9?9?9E0?9?9?9?9?9?9?9?9?9?9?9*9?9*9*9?9*9,23.50,22.10,92,95542,0,0,403,0,0,0,0,0,0,0,218,0.0,9,9,8333.0,9000,9,999999999,84,0.2200,0,88,0.160,0.0,0.0
2016,7,21,24,5,?9?9?9?9E0?9?9?9?9?9?9?9?9?9?9?9*9?9*9*9?9*9,23.50,22.10,92,95542,0,0,403,0,0,0,0,0,0,0,218,0.0,9,9,8333.0,9000,9,999999999,84,0.2200,0,88,0.160,0.0,0.0
2016,7,21,24,6,?9?9?9?9E0?9?9?9?9?9?9?9?9?9?9?9*9?9*9*9?9*9,23.50,22.10,92,95542,0,0,403,0,0,0,0,0,0,0,218,0.0,9,9,8333.0,9000,9,999999999,84,0.2200,0,88,0.160,0.0,0.0
2016,7,21,24,7,?9?9?9?9E0?9?9?9?9?9?9?9?9?9?9?9*9?9*9*9?9*9,23.50,22.10,92,95542,0,0,403,0,0,0,0,0,0,0,218,0.0,9,9,8333.0,9000,9,999999999,84,0.2200,0,88,0.160,0.0,0.0
2016,7,21,24,8,?9?9?9?9E0?9?9?9?9?9?9?9?9?9?9?9*9?9*9*9?9*9,23.50,22.10,92,95542,0,0,403,0,0,0,0,0,0,0,218,0.0,9,9,8333.0,9000,9,999999999,84,0.2200,0,88,0.160,0.0,0.0
2016,7,21,24,9,?9?9?9?9E0?9?9?9?9?9?9?9?9?9?9?9*9?9*9*9?9*9,23.50,22.10,92,95542,0,0,403,0,0,0,0,0,0,0,218,0.0,9,9,8333.0,9000,9,999999999,84,0.2200,0,88,0.160,0.0,0.0
2016,7,21,24,10,?9?9?9?9E0?9?9?9?9?9?9?9?9?9?9?9*9?9*9*9?9*9,23.50,22.10,92,95542,0,0,403,0,0,0,0,0,0,0,218,0.0,9,9,8333.0,9000,9,999999999,84,0.2200,0,88,0.160,0.0,0.0
2016,7,21,24,11,?9?9?9?9E0?9?9?9?9?9?9?9?9?9?9?9*9?9*9*9?9*9,23.50,22.10,92,95542,0,0,403,0,0,0,0,0,0,0,218,0.0,9,9,8333.0,9000,9,999999999,84,0.2200,0,88,0.160,0.0,0.0
2016,7,21,24,12,?9?9?9?9E0?9?9?9?9?9?9?9?9?9?9?9*9?9*9*9?9*9,23.50,22.10,92,95542,0,0,403,0,0,0,0,0,0,0,218,0.0,9,9,8333.0,9000,9,999999999,84,0.2200,0,88,0.160,0.0,0.0
2016,7,21,24,13,?9?9?9?9E0?9?9?9?9?9?9?9?9?9?9?9*9?9*9*9?9*9,23.50,22.10,92,95542,0,0,403,0,0,0,0,0,0,0,218,0.0,9,9,8333.0,9000,9,999999999,84,0.2200,0,88,0.160,0.0,0.0
2016,7,21,24,14,?9?9?9?9E0?9?9?9?9?9?9?9?9?9?9?9*9?9*9*9?9*9,23.50,22.10,92,95542,0,0,403,0,0,0,0,0,0,0,218,0.0,9,9,8333.0,9000,9,999999999,84,0.2200,0,88,0.160,0.0,0.0
2016,7,21,24,15,?9?9?9?9E0?9?9?9?9?9?9?9?9?9?9?9*9?9*9*9?9*9,23.50,22.10,92,95542,0,0,403,0,0,0,0,0,0,0,218,0.0,9,9,8333.0,9000,9,999999999,84,0.2200,0,88,0.160,0.0,0.0
2016,7,21,24,16,?9?9?9?9E0?9?9?9?9?9?9?9?9?9?9?9*9?9*9*9?9*9,23.50,22.10,92,95542,0,0,403,0,0,0,0,0,0,0,218,0.0,9,9,8333.0,9000,9,999999999,84,0.2200,0,88,0.160,0.0,0.0
2016,7,21,24,17,?9?9?9?9E0?9?9?9?9?9?9?9?9?9?9?9*9?9*9*9?9*9,23.50,22.10,92,95542,0,0,403,0,0,0,0,0,0,0,218,0.0,9,9,8333.0,9000,9,999999999,84,0.2200,0,88,0.160,0.0,0.0
2016,7,21,24,18,?9?9?9?9E0?9?9?9?9?9?9?9?9?9?9?9*9?9*9*9?9*9,23.50,22.10,92,95542,0,0,403,0,0,0,0,0,0,0,218,0.0,9,9,8333.0,9000,9,999999999,84,0.2200,0,88,0.160,0.0,0.0
2016,7,21,24,19,?9?9?9?9E0?9?9?9?9?9?9?9?9?9?9?9*9?9*9*9?9*9,23.50,22.10,92,95542,0,0,403,0,0,0,0,0,0,0,218,0.0,9,9,8333.0,9000,9,999999999,84,0.2200,0,88,0.160,0.0,0.0
2016,7,21,24,20,?9?9?9?9E0?9?9?9?9?9?9?9?9?9?9?9*9?9*9*9?9*9,23.50,22.10,92,95542,0,0,403,0,0,0,0,0,0,0,218,0.0,9,9,8333.0,9000,9,999999999,84,0.2200,0,88,0.160,0.0,0.0
2016,7,21,24,21,?9?9?9?9E0?9?9?9?9?9?9?9?9?9?9?9*9?9*9*9?9*9,23.50,22.10,92,95542,0,0,403,0,0,0,0,0,0,0,218,0.0,9,9,8333.0,9000,9,999999999,84,0.2200,0,88,0.160,0.0,0.0
2016,7,21,24,22,?9?9?9?9E0?9?9?9?9?9?9?9?9?9?9?9*9?9*9*9?9*9,23.50,22.10,92,95542,0,0,403,0,0,0,0,0,0,0,218,0.0,9,9,8333.0,9000,9,999999999,84,0.2200,0,88,0.160,0.0,0.0
2016,7,21,24,23,?9?9?9?9E0?9?9?9?9?9?9?9?9?9?9?9*9?9*9*9?9*9,23.50,22.10,92,95542,0,0,403,0,0,0,0,0,0,0,218,0.0,9,9,8333.0,9000,9,999999999,84,0.2200,0,88,0.160,0.0,0.0
2016,7,21,24,24,?9?9?9?9E0?9?9?9?9?9?9?9?9?9?9?9*9?9*9*9?9*9,23.50,22.10,92,95542,0,0,403,0,0,0,0,0,0,0,218,0.0,9,9,8333.0,9000,9,999999999,84,0.2200,0,88,0.160,0.0,0.0
2016,7,21,24,25,?9?9?9?9E0?9?9?9?9?9?9?9?9?9?9?9*9?9*9*9?9*9,23.50,22.10,92,95542,0,0,403,0,0,0,0,0,0,0,218,0.0,9,9,8333.0,9000,9,999999999,84,0.2200,0,88,0.160,0.0,0.0
2016,7,21,24,26,?9?9?9?9E0?9?9?9?9?9?9?9?9?9?9?9*9?9*9*9?9*9,23.50,22.10,92,95542,0,0,403,0,0,0,0,0,0,0,218,0.0,9,9,8333.0,9000,9,999999999,84,0.2200,0,88,0.160,0.0,0.0
2016,7,21,24,27,?9?9?9?9E0?9?9?9?9?9?9?9?9?9?9?9*9?9*9*9?9*9,23.50,22.10,92,95542,0,0,403,0,0,0,0,0,0,0,218,0.0,9,9,8333.0,9000,9,999999999,84,0.2200,0,88,0.160,0.0,0.0
2016,7,21,24,28,?9?9?9?9E0?9?9?9?9?9?9?9?9?9?9?9*9?9*9*9?9*9,23.50,22.10,92,95542,0,0,403,0,0,0,0,0,0,0,218,0.0,9,9,8333.0,9000,9,999999999,84,0.2200,0,88,0.160,0.0,0.0
2016,7,21,24,29,?9?9?9?9E0?9?9?9?9?9?9?9?9?9?9?9*9?9*9*9?9*9,23.50,22.10,92,95542,0,0,403,0,0,0,0,0,0,0,218,0.0,9,9,8333.0,9000,9,999999999,84,0.2200,0,88,0.160,0.0,0.0
2016,7,21,24,30,?9?9?9?9E0?9?9?9?9?9?9?9?9?9?9?9*9?9*9*9?9*9,23.50,22.10,92,95542,0,0,403,0,0,0,0,0,0,0,218,0.0,9,9,8333.0,9000,9,999999999,84,0.2200,0,88,0.160,0.0,0.0
2016,7,21,24,31,?9?9?9?9E0?9?9?9?9?9?9?9?9?9?9?9*9?9*9*9?9*9,23.50,22.10,92,95542,0,0,403,0,0,0,0,0,0,0,218,0.0,9,9,8333.0,9000,9,999999999,84,0.2200,0,88,0.160,0.0,0.0
2016,7,21,24,32,?9?9?9?9E0?9?9?9?9?9?9?9?9?9?9?9*9?9*9*9?9*9,23.50,22.10,92,95542,0,0,403,0,0,0,0,0,0,0,218,0.0,9,9,8333.0,9000,9,999999999,84,0.2200,0,88,0.160,0.0,0.0
2016,7,21,24,33,?9?9?9?9E0?9?9?9?9?9?9?9?9?9?9?9*9?9*9*9?9*9,23.50,22.10,92,95542,0,0,403,0,0,0,0,0,0,0,218,0.0,9,9,8333.0,9000,9,999999999,84,0.2200,0,88,0.160,0.0,0.0
2016,7,21,24,34,?9?9?9?9E0?9?9?9?9?9?9?9?9?9?9?9*9?9*9*9?9*9,23.50,22.10,92,95542,0,0,403,0,0,0,0,0,0,0,218,0.0,9,9,8333.0,9000,9,999999999,84,0.2200,0,88,0.160,0.0,0.0
2016,7,21,24,35,?9?9?9?9E0?9?9?9?9?9?9?9?9?9?9?9*9?9*9*9?9*9,23.50,22.10,92,95542,0,0,403,0,0,0,0,0,0,0,218,0.0,9,9,8333.0,9000,9,999999999,84,0.2200,0,88,0.160,0.0,0.0
2016,7,21,24,36,?9?9?9?9E0?9?9?9?9?9?9?9?9?9?9?9*9?9*9*9?9*9,23.50,22.10,92,95542,0,0,403,0,0,0,0,0,0,0,218,0.0,9,9,8333.0,9000,9,999999999,84,0.2200,0,88,0.160,0.0,0.0
2016,7,21,24,37,?9?9?9?9E0?9?9?9?9?9?9?9?9?9?9?9*9?9*9*9?9*9,23.50,22.10,92,95542,0,0,403,0,0,0,0,0,0,0,218,0.0,9,9,8333.0,9000,9,999999999,84,0.2200,0,88,0.160,0.0,0.0
2016,7,21,24,38,?9?9?9?9E0?9?9?9?9?9?9?9?9?9?9?9*9?9*9*9?9*9,23.50,22.10,92,95542,0,0,403,0,0,0,0,0,0,0,218,0.0,9,9,8333.0,9000,9,999999999,84,0.2200,0,88,0.160,0.0,0.0
2016,7,21,24,39,?9?9?9?9E0?9?9?9?9?9?9?9?9?9?9?9*9?9*9*9?9*9,23.50,22.10,92,95542,0,0,403,0,0,0,0,0,0,0,218,0.0,9,9,8333.0,9000,9,999999999,84,0.2200,0,88,0.160,0.0,0.0
2016,7,21,24,40,?9?9?9?9E0?9?9?9?9?9?9?9?9?9?9?9*9?9*9*9?9*9,23.50,22.10,92,95542,0,0,403,0,0,0,0,0,0,0,218,0.0,9,9,8333.0,9000,9,999999999,84,0.2200,0,88,0.160,0.0,0.0
2016,7,21,24,41,?9?9?9?9E0?9?9?9?9?9?9?9?9?9?9?9*9?9*9*9?9*9,23.50,22.10,92,95542,0,0,403,0,0,0,0,0,0,0,218,0.0,9,9,8333.0,9000,9,999999999,84,0.2200,0,88,0.160,0.0,0.0
2016,7,21,24,42,?9?9?9?9E0?9?9?9?9?9?9?9?9?9?9?9*9?9*9*9?9*9,23.50,22.10,92,95542,0,0,403,0,0,0,0,0,0,0,218,0.0,9,9,8333.0,9000,9,999999999,84,0.2200,0,88,0.160,0.0,0.0
2016,7,21,24,43,?9?9?9?9E0?9?9?9?9?9?9?9?9?9?9?9*9?9*9*9?9*9,23.50,22.10,92,95542,0,0,403,0,0,0,0,0,0,0,218,0.0,9,9,8333.0,9000,9,999999999,84,0.2200,0,88,0.160,0.0,0.0
2016,7,21,24,44,?9?9?9?9E0?9?9?9?9?9?9?9?9?9?9?9*9?9*9*9?9*9,23.50,22.10,92,95542,0,0,403,0,0,0,0,0,0,0,218,0.0,9,9,8333.0,9000,9,999999999,84,0.2200,0,88,0.160,0.0,0.0
2016,7,21,24,45,?9?9?9?9E0?9?9?9?9?9?9?9?9?9?9?9*9?9*9*9?9*9,23.50,22.10,92,95542,0,0,403,0,0,0,0,0,0,0,218,0.0,9,9,8333.0,9000,9,999999999,84,0.2200,0,88,0.160,0.0,0.0
2016,7,21,24,46,?9?9?9?9E0?9?9?9?9?9?9?9?9?9?9?9*9?9*9*9?9*9,23.50,22.10,92,95542,0,0,403,0,0,0,0,0,0,0,218,0.0,9,9,8333.0,9000,9,999999999,84,0.2200,0,88,0.160,0.0,0.0
2016,7,21,24,47,?9?9?9?9E0?9?9?9?9?9?9?9?9?9?9?9*9?9*9*9?9*9,23.50,22.10,92,95542,0,0,403,0,0,0,0,0,0,0,218,0.0,9,9,8333.0,9000,9,999999999,84,0.2200,0,88,0.160,0.0,0.0
2016,7,21,24,48,?9?9?9?9E0?9?9?9?9?9?9?9?9?9?9?9*9?9*9*9?9*9,23.50,22.10,92,95542,0,0,403,0,0,0,0,0,0,0,218,0.0,9,9,8333.0,9000,9,999999999,84,0.2200,0,88,0.160,0.0,0.0
2016,7,21,24,49,?9?9?9?9E0?9?9?9?9?9?9?9?9?9?9?9*9?9*9*9?9*9,23.50,22.10,92,95542,0,0,403,0,0,0,0,0,0,0,218,0.0,9,9,8333.0,9000,9,999999999,84,0.2200,0,88,0.160,0.0,0.0
2016,7,21,24,50,?9?9?9?9E0?9?9?9?9?9?9?9?9?9?9?9*9?9*9*9?9*9,23.50,22.10,92,95542,0,0,403,0,0,0,0,0,0,0,218,0.0,9,9,8333.0,9000,9,999999999,84,0.2200,0,88,0.160,0.0,0.0
2016,7,21,24,51,?9?9?9?9E0?9?9?9?9?9?9?9?9?9?9?9*9?9*9*9?9*9,23.50,22.10,92,95542,0,0,403,0,0,0,0,0,0,0,218,0.0,9,9,8333.0,9000,9,999999999,84,0.2200,0,88,0.160,0.0,0.0
2016,7,21,24,52,?9?9?9?9E0?9?9?9?9?9?9?9?9?9?9?9*9?9*9*9?9*9,23.50,22.10,92,95542,0,0,403,0,0,0,0,0,0,0,218,0.0,9,9,8333.0,9000,9,999999999,84,0.2200,0,88,0.160,0.0,0.0
2016,7,21,24,53,?9?9?9?9E0?9?9?9?9?9?9?9?9?9?9?9*9?9*9*9?9*9,23.50,22.10,92,95542,0,0,403,0,0,0,0,0,0,0,218,0.0,9,9,8333.0,9000,9,999999999,84,0.2200,0,88,0.160,0.0,0.0
2016,7,21,24,54,?9?9?9?9E0?9?9?9?9?9?9?9?9?9?9?9*9?9*9*9?9*9,23.50,22.10,92,95542,0,0,403,0,0,0,0,0,0,0,218,0.0,9,9,8333.0,9000,9,999999999,84,0.2200,0,88,0.160,0.0,0.0
2016,7,21,24,55,?9?9?9?9E0?9?9?9?9?9?9?9?9?9?9?9*9?9*9*9?9*9,23.50,22.10,92,95542,0,0,403,0,0,0,0,0,0,0,218,0.0,9,9,8333.0,9000,9,999999999,84,0.2200,0,88,0.160,0.0,0.0
2016,7,21,24,56,?9?9?9?9E0?9?9?9?9?9?9?9?9?9?9?9*9?9*9*9?9*9,23.50,22.10,92,95542,0,0,403,0,0,0,0,0,0,0,218,0.0,9,9,8333.0,9000,9,999999999,84,0.2200,0,88,0.160,0.0,0.0
2016,7,21,24,57,?9?9?9?9E0?9?9?9?9?9?9?9?9?9?9?9*9?9*9*9?9*9,23.50,22.10,92,95542,0,0,403,0,0,0,0,0,0,0,218,0.0,9,9,8333.0,9000,9,999999999,84,0.2200,0,88,0.160,0.0,0.0
2016,7,21,24,58,?9?9?9?9E0?9?9?9?9?9?9?9?9?9?9?9*9?9*9*9?9*9,23.50,22.10,92,95542,0,0,403,0,0,0,0,0,0,0,218,0.0,9,9,8333.0,9000,9,999999999,84,0.2200,0,88,0.160,0.0,0.0
2016,7,21,24,59,?9?9?9?9E0?9?9?9?9?9?9?9?9?9?9?9*9?9*9*9?9*9,23.50,22.10,92,95542,0,0,403,0,0,0,0,0,0,0,218,0.0,9,9,8333.0,9000,9,999999999,84,0.2200,0,88,0.160,0.0,0.0
2016,7,21,24,60,?9?9?9?9E0?9?9?9?9?9?9?9?9?9?9?9*9?9*9*9?9*9,23.50,22.10,92,95542,0,0,403,0,0,0,0,0,0,0,218,0.0,9,9,8333.0,9000,9,999999999,84,0.2200,0,88,0.160,0.0,0.0
