LOCATION,Kandy,CP,LKA,SRC-TMYx,434440,7.33440,80.62660,5.5,477.0
DESIGN CONDITIONS,1,2025 ASHRAE Handbook -- Fundamentals - Chapter 14 Climatic Design Information,Heating,1,17.5,18.7,14.9,11.2,23.4,16.1,12.1,22.8,3.8,26.3,3.3,26.5,0.1,50,0.193,Cooling,4,8.8,32.2,23.5,31.5,23.7,30.8,23.8,25.5,29.8,25.1,29.3,24.8,28.8,1.3,140,24.2,20.3,27.4,23.9,19.9,27.1,23.6,19.6,26.8,81.1,30.1,79.5,29.5,78.3,29.2,27.5,Extremes,4.1,3.3,2.7,14.9,35.0,1.0,1.9,14.2,36.3,13.6,37.4,13.0,38.5,12.3,39.8,14.4,26.6,0.9,0.4,13.8,26.8,13.3,27.1,12.8,27.3,12.1,27.6
TYPICAL/EXTREME PERIODS,3,No Dry Season - Week Near Average Annual,Typical,7/23,7/29,No Dry Season - Week Near Annual Max,Extreme,4/23,4/29,No Dry Season - Week Near Annual Min,Extreme,1/15,1/21
GROUND TEMPERATURES,3,.5,,,,24.15,23.87,23.79,23.85,24.24,24.67,25.08,25.38,25.46,25.32,24.99,24.57,2,,,,24.41,24.14,24.01,24.01,24.21,24.51,24.83,25.10,25.24,25.22,25.03,24.74,4,,,,24.58,24.37,24.24,24.20,24.28,24.45,24.66,24.87,25.02,25.05,24.97,24.80
HOLIDAYS/DAYLIGHT SAVINGS,No,0,0,0
COMMENTS 1,"NCEI ISD/ERA5 - #years=[15] Period of Record=2011-2025; Jan=2019; Feb=2018; Mar=2025; Apr=2021; May=2015; Jun=2016; Jul=2016; Aug=2020; Sep=2014; Oct=2024; Nov=2012; Dec=2020"
COMMENTS 2,"Downloaded from Climate.Onebuilding.org -- Ground temps represent undisturbed earth temperatures - calculated from this weather data."
DATA PERIODS,1,1,Data,Wednesday,7/23,7/23
2026,7,23,4,16,?9?9?9?9E0?9?9?9*9*9?9?9?9?9?9?9*9?9*9*9?9*9,28.94,23.20,71.3,95768,0,0,398,0,0,0,0,0,0,0,217,0.47,8,8,8333.0,118,9,999999999,68,0.2190,0,88,0.160,0.0,0.0
2026,7,23,4,17,?9?9?9?9E0?9?9?9*9*9?9?9?9?9?9?9*9?9*9*9?9*9,29.00,23.24,71.2,95773,0,0,396,0,0,0,0,0,0,0,219,0.95,8,8,8333.0,102,9,999999999,68,0.2190,0,88,0.160,0.0,0.0
2026,7,23,4,18,?9?9?9?9E0?9?9?9?9?9?9?9?9?9?9?9*9?9*9*9?9*9,29.09,23.21,70.7,95771,0,0,395,0,0,0,0,0,0,0,270,2.47,9,9,8333.0,2400,0,919999999,67,0.2190,0,88,0.160,0.0,0.0
2026,7,23,4,19,?9?9?9?9E0?9?9?9*9*9?9?9?9?9?9?9*9?9*9*9?9*9,29.13,23.05,69.9,95771,0,0,395,0,0,0,0,0,0,0,225,3.53,8,8,8333.0,86,9,999999999,67,0.2190,0,88,0.160,0.0,0.0
2026,7,23,4,20,?9?9?9?9E0?9?9?9*9*9?9?9?9?9?9?9*9?9*9*9?9*9,29.18,23.02,69.5,95772,0,0,384,0,0,0,0,0,0,0,225,1.66,8,8,8333.0,389,9,999999999,66,0.2190,0,88,0.160,0.0,0.0
2026,7,23,4,21,?9?9?9?9E0?9?9?9?9?9?9?9?9?9?9?9*9?9*9*9?9*9,29.27,23.04,69.3,95769,0,0,380,0,0,0,0,0,0,0,270,1.18,5,5,8333.0,379,9,999999999,66,0.2190,0,88,0.160,0.0,0.0
2026,7,23,4,22,?9?9?9?9E0?9?9?9*9*9?9?9?9?9?9?9*9?9*9*9?9*9,29.31,22.94,68.6,95771,305,1262,375,65,107,39,16488,19486,12003,4381,227,1.68,8,8,8333.0,156,9,999999999,68,0.2190,0,88,0.160,0.0,0.0
2026,7,23,4,23,?9?9?9?9E0?9?9?9*9*9?9?9?9?9?9?9*9?9*9*9?9*9,29.33,23.00,68.8,95773,609,1323,388,206,285,100,35474,34405,20761,5219,237,2.01,7,7,8333.0,281,9,999999999,69,0.2190,0,88,0.160,0.0,0.0
2026,7,23,4,24,?9?9?9?9E0?9?9?9?9?9?9?9?9?9?9?9*9?9*9*9?9*9,29.40,23.17,69.3,95771,875,1323,391,406,419,165,57022,43662,26349,4714,270,1.06,5,5,8333.0,472,9,999999999,71,0.2190,0,88,0.160,0.1,0.0
2026,7,23,4,25,?9?9?9?9E0?9?9?9*9*9?9?9?9?9?9?9*9?9*9*9?9*9,29.43,23.17,69.2,95774,1086,1323,392,606,563,181,72890,46601,27648,3947,251,1.10,7,7,8333.0,598,9,999999999,74,0.2190,0,88,0.160,0.1,0.0
2026,7,23,4,26,?9?9?9?9E0?9?9?9*9*9?9?9?9?9?9?9*9?9*9*9?9*9,29.49,23.11,68.7,95770,1226,1323,397,736,628,187,81275,43174,26688,3771,257,1.33,6,6,8333.0,702,9,999999999,77,0.2190,0,88,0.160,0.1,0.0
2026,7,23,4,27,?9?9?9?9E0?9?9?9?9?9?9?9?9?9?9?9*9?9*9*9?9*9,29.61,23.16,68.4,95770,1287,1323,403,838,688,182,88828,45331,23874,3371,270,1.62,4,4,8333.0,797,9,999999999,80,0.2190,0,88,0.160,0.1,0.0
2026,7,23,4,28,?9?9?9?9E0?9?9?9*9*9?9?9?9?9?9?9*9?9*9*9?9*9,29.70,23.20,68.2,95768,1265,1323,403,878,758,147,90452,57789,22004,2905,261,0.90,6,6,8333.0,901,9,999999999,76,0.2190,0,88,0.160,0.2,0.0
2026,7,23,4,29,?9?9?9?9E0?9?9?9*9*9?9?9?9?9?9?9*9?9*9*9?9*9,29.80,23.26,68.1,95770,1160,1323,414,799,712,144,82959,64796,22215,3391,260,1.63,5,5,8333.0,866,9,999999999,72,0.2190,0,88,0.160,0.2,0.0
2026,7,23,4,30,?9?9?9?9E0?9?9?9?9?9?9?9?9?9?9?9*9?9*9*9?9*9,29.82,23.16,67.6,95767,980,1323,398,691,675,145,69936,64346,20823,4620,270,1.14,4,4,8333.0,873,9,999999999,68,0.2190,0,88,0.160,0.1,0.0
2026,7,23,4,31,?9?9?9?9E0?9?9?9*9*9?9?9?9?9?9?9*9?9*9*9?9*9,29.81,23.05,67.2,95769,737,1323,398,542,609,141,50113,52761,19344,6861,256,0.95,5,5,8333.0,976,9,999999999,69,0.2190,0,88,0.160,0.0,0.0
2026,7,23,4,32,?9?9?9?9E0?9?9?9*9*9?9?9?9?9?9?9*9?9*9*9?9*9,29.76,23.00,67.2,95774,448,1323,398,323,421,122,27062,32390,15694,8546,252,1.21,6,6,8333.0,843,9,999999999,70,0.2190,0,88,0.160,0.0,0.0
2026,7,23,4,33,?9?9?9?9E0?9?9?9?9?9?9?9?9?9?9?9*9?9*9*9?9*9,29.73,23.09,67.6,95772,133,1323,394,127,232,68,9230,15990,7098,5532,230,0.73,6,6,8333.0,9000,9,999999999,71,0.2190,0,88,0.160,0.0,0.0
2026,7,23,4,34,?9?9?9?9E0?9?9?9*9*9?9?9?9?9?9?9*9?9*9*9?9*9,29.77,23.17,67.8,95770,0,549,390,24,0,16,1387,4415,1124,1178,240,0.60,6,6,8333.0,500,9,999999999,71,0.2190,0,88,0.160,0.0,0.0
2026,7,23,4,35,?9?9?9?9E0?9?9?9*9*9?9?9?9?9?9?9*9?9*9*9?9*9,29.83,23.16,67.5,95768,0,0,391,0,0,0,0,0,0,0,232,0.45,7,7,8333.0,299,9,999999999,72,0.2190,0,88,0.160,0.0,0.0
2026,7,23,4,36,?9?9?9?9E0?9?9?9?9?9?9?9?9?9?9?9*9?9*9*9?9*9,29.86,23.16,67.4,95768,0,0,392,0,0,0,0,0,0,0,225,0.45,3,3,8333.0,191,9,999999999,72,0.2190,0,88,0.160,0.0,0.0
2026,7,23,4,37,?9?9?9?9E0?9?9?9*9*9?9?9?9?9?9?9*9?9*9*9?9*9,29.96,23.28,67.5,95762,0,0,390,0,0,0,0,0,0,0,224,0.55,8,8,8333.0,171,9,999999999,72,0.2190,0,88,0.160,0.0,0.0
2026,7,23,4,38,?9?9?9?9E0?9?9?9*9*9?9?9?9?9?9?9*9?9*9*9?9*9,30.07,23.33,67.3,95780,0,0,375,0,0,0,0,0,0,0,226,1.39,8,8,8333.0,630,9,999999999,72,0.2190,0,88,0.160,0.0,0.0
2026,7,23,4,39,?9?9?9?9E0?9?9?9*9*9?9?9?9?9?9?9*9?9*9*9?9*9,30.16,23.41,67.3,95779,0,0,382,0,0,0,0,0,0,0,227,0.87,8,8,8333.0,178,9,999999999,72,0.2190,0,88,0.160,0.0,0.0
2026,7,23,4,40,?9?9?9?9E0?9?9?9*9*9?9?9?9?9?9?9*9?9*9*9?9*9,30.29,23.49,67.1,95775,0,0,398,0,0,0,0,0,0,0,217,0.43,8,8,8333.0,118,9,999999999,68,0.2190,0,88,0.160,0.0,0.0
2026,7,23,4,41,?9?9?9?9E0?9?9?9*9*9?9?9?9?9?9?9*9?9*9*9?9*9,30.35,23.46,66.8,95779,0,0,396,0,0,0,0,0,0,0,219,0.78,8,8,8333.0,102,9,999999999,68,0.2190,0,88,0.160,0.0,0.0
2026,7,23,4,42,?9?9?9?9E0?9?9?9?9?9?9?9?9?9?9?9*9?9*9*9?9*9,30.39,23.36,66.2,95778,0,0,395,0,0,0,0,0,0,0,270,0.55,9,9,8333.0,2400,0,919999999,67,0.2190,0,88,0.160,0.0,0.0
2026,7,23,4,43,?9?9?9?9E0?9?9?9*9*9?9?9?9?9?9?9*9?9*9*9?9*9,30.36,23.18,65.6,95775,0,0,395,0,0,0,0,0,0,0,225,0.58,8,8,8333.0,86,9,999999999,67,0.2190,0,88,0.160,0.0,0.0
2026,7,23,4,44,?9?9?9?9E0?9?9?9*9*9?9?9?9?9?9?9*9?9*9*9?9*9,30.34,23.15,65.6,95773,0,0,384,0,0,0,0,0,0,0,225,0.40,8,8,8333.0,389,9,999999999,66,0.2190,0,88,0.160,0.0,0.0
2026,7,23,4,45,?9?9?9?9E0?9?9?9?9?9?9?9?9?9?9?9*9?9*9*9?9*9,30.40,23.23,65.6,95771,0,0,380,0,0,0,0,0,0,0,270,0.55,5,5,8333.0,379,9,999999999,66,0.2190,0,88,0.160,0.0,0.0
2026,7,23,4,46,?9?9?9?9E0?9?9?9*9*9?9?9?9?9?9?9*9?9*9*9?9*9,30.44,23.17,65.3,95774,305,1262,375,65,107,39,16488,19486,12003,4381,227,1.07,8,8,8333.0,156,9,999999999,68,0.2190,0,88,0.160,0.0,0.0
2026,7,23,4,47,?9?9?9?9E0?9?9?9*9*9?9?9?9?9?9?9*9?9*9*9?9*9,30.47,23.23,65.4,95772,609,1323,388,206,285,100,35474,34405,20761,5219,237,0.48,7,7,8333.0,281,9,999999999,69,0.2190,0,88,0.160,0.0,0.0
2026,7,23,4,48,?9?9?9?9E0?9?9?9?9?9?9?9?9?9?9?9*9?9*9*9?9*9,30.51,23.27,65.4,95770,875,1323,391,406,419,165,57022,43662,26349,4714,270,1.17,5,5,8333.0,472,9,999999999,71,0.2190,0,88,0.160,0.1,0.0
2026,7,23,4,49,?9?9?9?9E0?9?9?9*9*9?9?9?9?9?9?9*9?9*9*9?9*9,30.51,23.17,65.0,95771,1086,1323,392,606,563,181,72890,46601,27648,3947,251,0.61,7,7,8333.0,598,9,999999999,74,0.2190,0,88,0.160,0.1,0.0
2026,7,23,4,50,?9?9?9?9E0?9?9?9*9*9?9?9?9?9?9?9*9?9*9*9?9*9,30.49,23.07,64.7,95770,1226,1323,397,736,628,187,81275,43174,26688,3771,257,0.53,6,6,8333.0,702,9,999999999,77,0.2190,0,88,0.160,0.1,0.0
2026,7,23,4,51,?9?9?9?9E0?9?9?9?9?9?9?9?9?9?9?9*9?9*9*9?9*9,30.41,23.10,65.1,95768,1287,1323,403,838,688,182,88828,45331,23874,3371,270,0.69,4,4,8333.0,797,9,999999999,80,0.2190,0,88,0.160,0.1,0.0
2026,7,23,4,52,?9?9?9?9E0?9?9?9*9*9?9?9?9?9?9?9*9?9*9*9?9*9,30.44,23.29,65.7,95769,1265,1323,403,878,758,147,90452,57789,22004,2905,261,1.41,6,6,8333.0,901,9,999999999,76,0.2190,0,88,0.160,0.2,0.0
2026,7,23,4,53,?9?9?9?9E0?9?9?9*9*9?9?9?9?9?9?9*9?9*9*9?9*9,30.50,23.39,65.9,95770,1160,1323,414,799,712,144,82959,64796,22215,3391,260,3.25,5,5,8333.0,866,9,999999999,72,0.2190,0,88,0.160,0.2,0.0
2026,7,23,4,54,?9?9?9?9E0?9?9?9?9?9?9?9?9?9?9?9*9?9*9*9?9*9,30.55,23.28,65.3,95770,980,1323,398,691,675,145,69936,64346,20823,4620,270,1.22,4,4,8333.0,873,9,999999999,68,0.2190,0,88,0.160,0.1,0.0
2026,7,23,4,55,?9?9?9?9E0?9?9?9*9*9?9?9?9?9?9?9*9?9*9*9?9*9,30.57,23.08,64.4,95773,737,1323,398,542,609,141,50113,52761,19344,6861,256,1.15,5,5,8333.0,976,9,999999999,69,0.2190,0,88,0.160,0.0,0.0
2026,7,23,4,56,?9?9?9?9E0?9?9?9*9*9?9?9?9?9?9?9*9?9*9*9?9*9,30.62,23.22,64.8,95773,448,1323,398,323,421,122,27062,32390,15694,8546,252,0.33,6,6,8333.0,843,9,999999999,70,0.2190,0,88,0.160,0.0,0.0
2026,7,23,4,57,?9?9?9?9E0?9?9?9?9?9?9?9?9?9?9?9*9?9*9*9?9*9,30.61,23.14,64.5,95773,133,1323,394,127,232,68,9230,15990,7098,5532,230,0.84,6,6,8333.0,9000,9,999999999,71,0.2190,0,88,0.160,0.0,0.0
2026,7,23,4,58,?9?9?9?9E0?9?9?9*9*9?9?9?9?9?9?9*9?9*9*9?9*9,30.58,23.09,64.5,95770,0,549,390,24,0,16,1387,4415,1124,1178,240,1.05,6,6,8333.0,500,9,999999999,71,0.2190,0,88,0.160,0.0,0.0
2026,7,23,4,59,?9?9?9?9E0?9?9?9*9*9?9?9?9?9?9?9*9?9*9*9?9*9,30.53,23.11,64.7,95769,0,0,391,0,0,0,0,0,0,0,232,1.08,7,7,8333.0,299,9,999999999,72,0.2190,0,88,0.160,0.0,0.0
2026,7,23,5,0,?9?9?9?9E0?9?9?9?9?9?9?9?9?9?9?9*9?9*9*9?9*9,30.53,23.24,65.2,95773,0,0,392,0,0,0,0,0,0,0,225,0.72,3,3,8333.0,191,9,999999999,72,0.2190,0,88,0.160,0.0,0.0
2026,7,23,5,1,?9?9?9?9E0?9?9?9*9*9?9?9?9?9?9?9*9?9*9*9?9*9,30.54,23.16,64.8,95775,0,0,390,0,0,0,0,0,0,0,224,1.29,8,8,8333.0,171,9,999999999,72,0.2190,0,88,0.160,0.0,0.0
2026,7,23,5,2,?9?9?9?9E0?9?9?9*9*9?9?9?9?9?9?9*9?9*9*9?9*9,30.56,23.08,64.5,95779,0,0,375,0,0,0,0,0,0,0,226,0.79,8,8,8333.0,630,9,999999999,72,0.2190,0,88,0.160,0.0,0.0
2026,7,23,5,3,?9?9?9?9E0?9?9?9*9*9?9?9?9?9?9?9*9?9*9*9?9*9,30.55,23.07,64.5,95775,0,0,382,0,0,0,0,0,0,0,227,0.49,8,8,8333.0,178,9,999999999,72,0.2190,0,88,0.160,0.0,0.0
2026,7,23,5,4,?9?9?9?9E0?9?9?9*9*9?9?9?9?9?9?9*9?9*9*9?9*9,30.52,23.17,65.0,95775,0,0,398,0,0,0,0,0,0,0,217,0.58,8,8,8333.0,118,9,999999999,68,0.2190,0,88,0.160,0.0,0.0
2026,7,23,5,5,?9?9?9?9E0?9?9?9*9*9?9?9?9?9?9?9*9?9*9*9?9*9,30.52,23.24,65.3,95772,0,0,396,0,0,0,0,0,0,0,219,0.24,8,8,8333.0,102,9,999999999,68,0.2190,0,88,0.160,0.0,0.0
2026,7,23,5,6,?9?9?9?9E0?9?9?9?9?9?9?9?9?9?9?9*9?9*9*9?9*9,30.49,23.27,65.5,95771,0,0,395,0,0,0,0,0,0,0,270,0.43,9,9,8333.0,2400,0,919999999,67,0.2190,0,88,0.160,0.0,0.0
2026,7,23,5,7,?9?9?9?9E0?9?9?9*9*9?9?9?9?9?9?9*9?9*9*9?9*9,30.52,23.27,65.4,95771,0,0,395,0,0,0,0,0,0,0,225,0.43,8,8,8333.0,86,9,999999999,67,0.2190,0,88,0.160,0.0,0.0
2026,7,23,5,8,?9?9?9?9E0?9?9?9*9*9?9?9?9?9?9?9*9?9*9*9?9*9,30.47,23.14,65.0,95771,0,0,384,0,0,0,0,0,0,0,225,0.79,8,8,8333.0,389,9,999999999,66,0.2190,0,88,0.160,0.0,0.0
2026,7,23,5,9,?9?9?9?9E0?9?9?9?9?9?9?9?9?9?9?9*9?9*9*9?9*9,30.49,23.11,64.9,95772,0,0,380,0,0,0,0,0,0,0,270,28.44,5,5,8333.0,379,9,999999999,66,0.2190,0,88,0.160,0.0,0.0
2026,7,23,5,10,?9?9?9?9E0?9?9?9*9*9?9?9?9?9?9?9*9?9*9*9?9*9,30.47,23.06,64.7,95772,305,1262,375,65,107,39,16488,19486,12003,4381,227,19.20,8,8,8333.0,156,9,999999999,68,0.2190,0,88,0.160,0.0,0.0
2026,7,23,5,11,?9?9?9?9E0?9?9?9*9*9?9?9?9?9?9?9*9?9*9*9?9*9,30.43,23.06,64.9,95771,609,1323,388,206,285,100,35474,34405,20761,5219,237,9.57,7,7,8333.0,281,9,999999999,69,0.2190,0,88,0.160,0.0,0.0
2026,7,23,5,12,?9?9?9?9E0?9?9?9?9?9?9?9?9?9?9?9*9?9*9*9?9*9,30.48,23.14,65.0,95773,875,1323,391,406,419,165,57022,43662,26349,4714,270,10.57,5,5,8333.0,472,9,999999999,71,0.2190,0,88,0.160,0.1,0.0
2026,7,23,5,13,?9?9?9?9E0?9?9?9*9*9?9?9?9?9?9?9*9?9*9*9?9*9,30.49,23.05,64.6,95771,1086,1323,392,606,563,181,72890,46601,27648,3947,251,6.01,7,7,8333.0,598,9,999999999,74,0.2190,0,88,0.160,0.1,0.0
2026,7,23,5,14,?9?9?9?9E0?9?9?9*9*9?9?9?9?9?9?9*9?9*9*9?9*9,30.56,23.05,64.4,95772,1226,1323,397,736,628,187,81275,43174,26688,3771,257,2.85,6,6,8333.0,702,9,999999999,77,0.2190,0,88,0.160,0.1,0.0
2026,7,23,5,15,?9?9?9?9E0?9?9?9?9?9?9?9?9?9?9?9*9?9*9*9?9*9,30.61,23.14,64.5,95769,1287,1323,403,838,688,182,88828,45331,23874,3371,270,1.91,4,4,8333.0,797,9,999999999,80,0.2190,0,88,0.160,0.1,0.0
2026,7,23,5,16,?9?9?9?9E0?9?9?9*9*9?9?9?9?9?9?9*9?9*9*9?9*9,30.55,23.03,64.3,95767,1265,1323,403,878,758,147,90452,57789,22004,2905,261,1.13,6,6,8333.0,901,9,999999999,76,0.2190,0,88,0.160,0.2,0.0
2026,7,23,5,17,?9?9?9?9E0?9?9?9*9*9?9?9?9?9?9?9*9?9*9*9?9*9,30.53,23.03,64.4,95761,1160,1323,414,799,712,144,82959,64796,22215,3391,260,1.14,5,5,8333.0,866,9,999999999,72,0.2190,0,88,0.160,0.2,0.0
2026,7,23,5,18,?9?9?9?9E0?9?9?9?9?9?9?9?9?9?9?9*9?9*9*9?9*9,30.58,23.17,64.7,95760,980,1323,398,691,675,145,69936,64346,20823,4620,270,0.79,4,4,8333.0,873,9,999999999,68,0.2190,0,88,0.160,0.1,0.0
2026,7,23,5,19,?9?9?9?9E0?9?9?9*9*9?9?9?9?9?9?9*9?9*9*9?9*9,30.62,22.99,63.9,95764,737,1323,398,542,609,141,50113,52761,19344,6861,256,1.10,5,5,8333.0,976,9,999999999,69,0.2190,0,88,0.160,0.0,0.0
2026,7,23,5,20,?9?9?9?9E0?9?9?9*9*9?9?9?9?9?9?9*9?9*9*9?9*9,30.61,22.86,63.5,95765,448,1323,398,323,421,122,27062,32390,15694,8546,252,1.28,6,6,8333.0,843,9,999999999,70,0.2190,0,88,0.160,0.0,0.0
2026,7,23,5,21,?9?9?9?9E0?9?9?9?9?9?9?9?9?9?9?9*9?9*9*9?9*9,30.64,22.91,63.5,95760,133,1323,394,127,232,68,9230,15990,7098,5532,230,2.67,6,6,8333.0,9000,9,999999999,71,0.2190,0,88,0.160,0.0,0.0
2026,7,23,5,22,?9?9?9?9E0?9?9?9*9*9?9?9?9?9?9?9*9?9*9*9?9*9,30.66,22.99,63.8,95759,0,549,390,24,0,16,1387,4415,1124,1178,240,1.85,6,6,8333.0,500,9,999999999,71,0.2190,0,88,0.160,0.0,0.0
2026,7,23,5,23,?9?9?9?9E0?9?9?9*9*9?9?9?9?9?9?9*9?9*9*9?9*9,30.67,22.92,63.5,95760,0,0,391,0,0,0,0,0,0,0,232,0.41,7,7,8333.0,299,9,999999999,72,0.2190,0,88,0.160,0.0,0.0
2026,7,23,5,24,?9?9?9?9E0?9?9?9?9?9?9?9?9?9?9?9*9?9*9*9?9*9,30.65,22.70,62.7,95757,0,0,392,0,0,0,0,0,0,0,225,0.94,3,3,8333.0,191,9,999999999,72,0.2190,0,88,0.160,0.0,0.0
2026,7,23,5,25,?9?9?9?9E0?9?9?9*9*9?9?9?9?9?9?9*9?9*9*9?9*9,30.62,22.69,62.8,95758,0,0,390,0,0,0,0,0,0,0,224,1.50,8,8,8333.0,171,9,999999999,72,0.2190,0,88,0.160,0.0,0.0
2026,7,23,5,26,?9?9?9?9E0?9?9?9*9*9?9?9?9?9?9?9*9?9*9*9?9*9,30.61,22.91,63.6,95754,0,0,375,0,0,0,0,0,0,0,226,1.71,8,8,8333.0,630,9,999999999,72,0.2190,0,88,0.160,0.0,0.0
2026,7,23,5,27,?9?9?9?9E0?9?9?9*9*9?9?9?9?9?9?9*9?9*9*9?9*9,30.63,22.96,63.7,95756,0,0,382,0,0,0,0,0,0,0,227,1.65,8,8,8333.0,178,9,999999999,72,0.2190,0,88,0.160,0.0,0.0
2026,7,23,5,28,?9?9?9?9E0?9?9?9*9*9?9?9?9?9?9?9*9?9*9*9?9*9,30.59,22.95,63.9,95753,0,0,398,0,0,0,0,0,0,0,217,7.58,8,8,8333.0,118,9,999999999,68,0.2190,0,88,0.160,0.0,0.0
2026,7,23,5,29,?9?9?9?9E0?9?9?9*9*9?9?9?9?9?9?9*9?9*9*9?9*9,30.63,23.02,64.0,95751,0,0,396,0,0,0,0,0,0,0,219,17.30,8,8,8333.0,102,9,999999999,68,0.2190,0,88,0.160,0.0,0.0
2026,7,23,5,30,?9?9?9?9E0?9?9?9?9?9?9?9?9?9?9?9*9?9*9*9?9*9,30.56,22.99,64.1,95748,0,0,395,0,0,0,0,0,0,0,270,14.86,9,9,8333.0,2400,0,919999999,67,0.2190,0,88,0.160,0.0,0.0
2026,7,23,5,31,?9?9?9?9E0?9?9?9*9*9?9?9?9?9?9?9*9?9*9*9?9*9,30.48,22.97,64.3,95746,0,0,395,0,0,0,0,0,0,0,225,12.42,8,8,8333.0,86,9,999999999,67,0.2190,0,88,0.160,0.0,0.0
2026,7,23,5,32,?9?9?9?9E0?9?9?9*9*9?9?9?9?9?9?9*9?9*9*9?9*9,30.41,22.95,64.5,95743,0,0,384,0,0,0,0,0,0,0,225,9.98,8,8,8333.0,389,9,999999999,66,0.2190,0,88,0.160,0.0,0.0
2026,7,23,5,33,?9?9?9?9E0?9?9?9?9?9?9?9?9?9?9?9*9?9*9*9?9*9,30.34,22.93,64.7,95740,0,0,380,0,0,0,0,0,0,0,270,7.53,5,5,8333.0,379,9,999999999,66,0.2190,0,88,0.160,0.0,0.0
2026,7,23,5,34,?9?9?9?9E0?9?9?9*9*9?9?9?9?9?9?9*9?9*9*9?9*9,30.26,22.91,64.9,95738,305,1262,375,65,107,39,16488,19486,12003,4381,227,5.09,8,8,8333.0,156,9,999999999,68,0.2190,0,88,0.160,0.0,0.0
2026,7,23,5,35,?9?9?9?9E0?9?9?9*9*9?9?9?9?9?9?9*9?9*9*9?9*9,30.19,22.88,65.1,95735,609,1323,388,206,285,100,35474,34405,20761,5219,237,2.65,7,7,8333.0,281,9,999999999,69,0.2190,0,88,0.160,0.0,0.0
2026,7,23,5,36,?9?9?9?9E0?9?9?9?9?9?9?9?9?9?9?9*9?9*9*9?9*9,30.11,22.86,65.3,95732,875,1323,391,406,419,165,57022,43662,26349,4714,270,0.21,5,5,8333.0,472,9,999999999,71,0.2190,0,88,0.160,0.1,0.0
2026,7,23,5,37,?9?9?9?9E0?9?9?9*9*9?9?9?9?9?9?9*9?9*9*9?9*9,29.99,23.01,66.3,95729,1086,1323,392,606,563,181,72890,46601,27648,3947,251,2.60,7,7,8333.0,598,9,999999999,74,0.2190,0,88,0.160,0.1,0.0
2026,7,23,5,38,?9?9?9?9E0?9?9?9*9*9?9?9?9?9?9?9*9?9*9*9?9*9,30.24,23.20,66.2,95724,1226,1323,397,736,628,187,81275,43174,26688,3771,257,0.55,6,6,8333.0,702,9,999999999,77,0.2190,0,88,0.160,0.1,0.0
2026,7,23,5,39,?9?9?9?9E0?9?9?9?9?9?9?9?9?9?9?9*9?9*9*9?9*9,30.57,23.30,65.3,95723,1287,1323,403,838,688,182,88828,45331,23874,3371,270,1.90,4,4,8333.0,797,9,999999999,80,0.2190,0,88,0.160,0.1,0.0
2026,7,23,5,40,?9?9?9?9E0?9?9?9*9*9?9?9?9?9?9?9*9?9*9*9?9*9,30.84,23.40,64.7,95725,1265,1323,403,878,758,147,90452,57789,22004,2905,261,1.32,6,6,8333.0,901,9,999999999,76,0.2190,0,88,0.160,0.2,0.0
2026,7,23,5,41,?9?9?9?9E0?9?9?9*9*9?9?9?9?9?9?9*9?9*9*9?9*9,31.00,23.44,64.3,95723,1160,1323,414,799,712,144,82959,64796,22215,3391,260,0.76,5,5,8333.0,866,9,999999999,72,0.2190,0,88,0.160,0.2,0.0
2026,7,23,5,42,?9?9?9?9E0?9?9?9?9?9?9?9?9?9?9?9*9?9*9*9?9*9,31.12,23.44,63.8,95725,980,1323,398,691,675,145,69936,64346,20823,4620,270,1.38,4,4,8333.0,873,9,999999999,68,0.2190,0,88,0.160,0.1,0.0
2026,7,23,5,43,?9?9?9?9E0?9?9?9*9*9?9?9?9?9?9?9*9?9*9*9?9*9,31.21,23.48,63.6,95723,737,1323,398,542,609,141,50113,52761,19344,6861,256,2.17,5,5,8333.0,976,9,999999999,69,0.2190,0,88,0.160,0.0,0.0
2026,7,23,5,44,?9?9?9?9E0?9?9?9*9*9?9?9?9?9?9?9*9?9*9*9?9*9,31.24,23.51,63.7,95725,448,1323,398,323,421,122,27062,32390,15694,8546,252,3.01,6,6,8333.0,843,9,999999999,70,0.2190,0,88,0.160,0.0,0.0
2026,7,23,5,45,?9?9?9?9E0?9?9?9?9?9?9?9?9?9?9?9*9?9*9*9?9*9,31.26,23.54,63.7,95722,133,1323,394,127,232,68,9230,15990,7098,5532,230,2.61,6,6,8333.0,9000,9,999999999,71,0.2190,0,88,0.160,0.0,0.0
2026,7,23,5,46,?9?9?9?9E0?9?9?9*9*9?9?9?9?9?9?9*9?9*9*9?9*9,31.34,23.56,63.5,95721,0,549,390,24,0,16,1387,4415,1124,1178,240,1.65,6,6,8333.0,500,9,999999999,71,0.2190,0,88,0.160,0.0,0.0
2026,7,23,5,47,?9?9?9?9E0?9?9?9*9*9?9?9?9?9?9?9*9?9*9*9?9*9,31.36,23.58,63.5,95724,0,0,391,0,0,0,0,0,0,0,232,13.40,7,7,8333.0,299,9,999999999,72,0.2190,0,88,0.160,0.0,0.0
2026,7,23,5,48,?9?9?9?9E0?9?9?9?9?9?9?9?9?9?9?9*9?9*9*9?9*9,31.39,23.59,63.4,95722,0,0,392,0,0,0,0,0,0,0,225,13.63,3,3,8333.0,191,9,999999999,72,0.2190,0,88,0.160,0.0,0.0
2026,7,23,5,49,?9?9?9?9E0?9?9?9*9*9?9?9?9?9?9?9*9?9*9*9?9*9,31.38,23.62,63.6,95720,0,0,390,0,0,0,0,0,0,0,224,3.62,8,8,8333.0,171,9,999999999,72,0.2190,0,88,0.160,0.0,0.0
2026,7,23,5,50,?9?9?9?9E0?9?9?9*9*9?9?9?9?9?9?9*9?9*9*9?9*9,31.36,23.60,63.6,95711,0,0,375,0,0,0,0,0,0,0,226,0.65,8,8,8333.0,630,9,999999999,72,0.2190,0,88,0.160,0.0,0.0
2026,7,23,5,51,?9?9?9?9E0?9?9?9*9*9?9?9?9?9?9?9*9?9*9*9?9*9,31.36,23.55,63.4,95710,0,0,382,0,0,0,0,0,0,0,227,4.99,8,8,8333.0,178,9,999999999,72,0.2190,0,88,0.160,0.0,0.0
2026,7,23,5,52,?9?9?9?9E0?9?9?9*9*9?9?9?9?9?9?9*9?9*9*9?9*9,31.41,23.52,63.1,95726,0,0,398,0,0,0,0,0,0,0,217,2.21,8,8,8333.0,118,9,999999999,68,0.2190,0,88,0.160,0.0,0.0
2026,7,23,5,53,?9?9?9?9E0?9?9?9*9*9?9?9?9?9?9?9*9?9*9*9?9*9,31.41,23.48,62.9,95726,0,0,396,0,0,0,0,0,0,0,219,0.66,8,8,8333.0,102,9,999999999,68,0.2190,0,88,0.160,0.0,0.0
2026,7,23,5,54,?9?9?9?9E0?9?9?9?9?9?9?9?9?9?9?9*9?9*9*9?9*9,31.46,23.41,62.5,95725,0,0,395,0,0,0,0,0,0,0,270,1.11,9,9,8333.0,2400,0,919999999,67,0.2190,0,88,0.160,0.0,0.0
2026,7,23,5,55,?9?9?9?9E0?9?9?9*9*9?9?9?9?9?9?9*9?9*9*9?9*9,31.48,23.17,61.5,95727,0,0,395,0,0,0,0,0,0,0,225,1.16,8,8,8333.0,86,9,999999999,67,0.2190,0,88,0.160,0.0,0.0
2026,7,23,5,56,?9?9?9?9E0?9?9?9*9*9?9?9?9?9?9?9*9?9*9*9?9*9,31.46,23.15,61.5,95726,0,0,384,0,0,0,0,0,0,0,225,1.65,8,8,8333.0,389,9,999999999,66,0.2190,0,88,0.160,0.0,0.0
2026,7,23,5,57,?9?9?9?9E0?9?9?9?9?9?9?9?9?9?9?9*9?9*9*9?9*9,31.32,23.26,62.4,95719,0,0,380,0,0,0,0,0,0,0,270,0.61,5,5,8333.0,379,9,999999999,66,0.2190,0,88,0.160,0.0,0.0
2026,7,23,5,58,?9?9?9?9E0?9?9?9*9*9?9?9?9?9?9?9*9?9*9*9?9*9,31.04,23.28,63.5,95730,305,1262,375,65,107,39,16488,19486,12003,4381,227,0.29,8,8,8333.0,156,9,999999999,68,0.2190,0,88,0.160,0.0,0.0
2026,7,23,5,59,?9?9?9?9E0?9?9?9*9*9?9?9?9?9?9?9*9?9*9*9?9*9,30.95,23.28,63.8,95732,609,1323,388,206,285,100,35474,34405,20761,5219,237,0.29,7,7,8333.0,281,9,999999999,69,0.2190,0,88,0.160,0.0,0.0
2026,7,23,6,0,?9?9?9?9E0?9?9?9?9?9?9?9?9?9?9?9*9?9*9*9?9*9,30.93,23.28,63.9,95732,875,1323,391,406,419,165,57022,43662,26349,4714,270,0.29,5,5,8333.0,472,9,999999999,71,0.2190,0,88,0.160,0.1,0.0
2026,7,23,6,1,?9?9?9?9E0?9?9?9*9*9?9?9?9?9?9?9*9?9*9*9?9*9,30.92,23.28,63.9,95730,1086,1323,392,606,563,181,72890,46601,27648,3947,251,0.29,7,7,8333.0,598,9,999999999,74,0.2190,0,88,0.160,0.1,0.0
2026,7,23,6,2,?9?9?9?9E0?9?9?9*9*9?9?9?9?9?9?9*9?9*9*9?9*9,30.92,23.28,63.9,95729,1226,1323,397,736,628,187,81275,43174,26688,3771,257,0.29,6,6,8333.0,702,9,999999999,77,0.2190,0,88,0.160,0.1,0.0
2026,7,23,6,3,?9?9?9?9E0?9?9?9?9?9?9?9?9?9?9?9*9?9*9*9?9*9,30.92,23.28,63.9,95726,1287,1323,403,838,688,182,88828,45331,23874,3371,270,0.29,4,4,8333.0,797,9,999999999,80,0.2190,0,88,0.160,0.1,0.0
2026,7,23,6,4,?9?9?9?9E0?9?9?9*9*9?9?9?9?9?9?9*9?9*9*9?9*9,30.92,23.28,63.9,95725,1265,1323,403,878,758,147,90452,57789,22004,2905,261,0.29,6,6,8333.0,901,9,999999999,76,0.2190,0,88,0.160,0.2,0.0
2026,7,23,6,5,?9?9?9?9E0?9?9?9*9*9?9?9?9?9?9?9*9?9*9*9?9*9,30.92,23.28,63.9,95720,1160,1323,414,799,712,144,82959,64796,22215,3391,260,0.29,5,5,8333.0,866,9,999999999,72,0.2190,0,88,0.160,0.2,0.0
2026,7,23,6,6,?9?9?9?9E0?9?9?9?9?9?9?9?9?9?9?9*9?9*9*9?9*9,30.92,23.28,63.9,95720,980,1323,398,691,675,145,69936,64346,20823,4620,270,0.29,4,4,8333.0,873,9,999999999,68,0.2190,0,88,0.160,0.1,0.0
2026,7,23,6,7,?9?9?9?9E0?9?9?9*9*9?9?9?9?9?9?9*9?9*9*9?9*9,30.92,23.28,63.9,95720,737,1323,398,542,609,141,50113,52761,19344,6861,256,0.29,5,5,8333.0,976,9,999999999,69,0.2190,0,88,0.160,0.0,0.0
2026,7,23,6,8,?9?9?9?9E0?9?9?9*9*9?9?9?9?9?9?9*9?9*9*9?9*9,30.92,23.28,63.9,95720,448,1323,398,323,421,122,27062,32390,15694,8546,252,0.29,6,6,8333.0,843,9,999999999,70,0.2190,0,88,0.160,0.0,0.0
2026,7,23,6,9,?9?9?9?9E0?9?9?9?9?9?9?9?9?9?9?9*9?9*9*9?9*9,30.92,23.28,63.9,95720,133,1323,394,127,232,68,9230,15990,7098,5532,230,0.29,6,6,8333.0,9000,9,999999999,71,0.2190,0,88,0.160,0.0,0.0
2026,7,23,6,10,?9?9?9?9E0?9?9?9*9*9?9?9?9?9?9?9*9?9*9*9?9*9,30.92,23.28,63.9,95720,0,549,390,24,0,16,1387,4415,1124,1178,240,0.29,6,6,8333.0,500,9,999999999,71,0.2190,0,88,0.160,0.0,0.0
2026,7,23,6,11,?9?9?9?9E0?9?9?9*9*9?9?9?9?9?9?9*9?9*9*9?9*9,30.92,15.02,38.2,95705,0,0,391,0,0,0,0,0,0,0,232,2.42,7,7,8333.0,299,9,999999999,72,0.2190,0,88,0.160,0.0,0.0
2026,7,23,6,12,?9?9?9?9E0?9?9?9?9?9?9?9?9?9?9?9*9?9*9*9?9*9,30.92,-3.23,10.8,95706,0,0,392,0,0,0,0,0,0,0,225,0.00,3,3,8333.0,191,9,999999999,72,0.2190,0,88,0.160,0.0,0.0
2026,7,23,6,13,?9?9?9?9E0?9?9?9*9*9?9?9?9?9?9?9*9?9*9*9?9*9,30.92,-19.02,3.1,95712,0,0,390,0,0,0,0,0,0,0,224,0.00,8,8,8333.0,171,9,999999999,72,0.2190,0,88,0.160,0.0,0.0
2026,7,23,6,14,?9?9?9?9E0?9?9?9*9*9?9?9?9?9?9?9*9?9*9*9?9*9,30.92,-31.28,0.9,95713,0,0,375,0,0,0,0,0,0,0,226,0.00,8,8,8333.0,630,9,999999999,72,0.2190,0,88,0.160,0.0,0.0
2026,7,23,6,15,?9?9?9?9E0?9?9?9*9*9?9?9?9?9?9?9*9?9*9*9?9*9,30.92,-31.28,0.3,95713,0,0,382,0,0,0,0,0,0,0,227,0.00,8,8,8333.0,178,9,999999999,72,0.2190,0,88,0.160,0.0,0.0
2026,7,23,6,16,?9?9?9?9E0?9?9?9*9*9?9?9?9?9?9?9*9?9*9*9?9*9,30.94,-31.14,1.0,95712,0,0,398,0,0,0,0,0,0,0,217,1.33,8,8,8333.0,118,9,999999999,68,0.2190,0,88,0.160,0.0,0.0
2026,7,23,6,17,?9?9?9?9E0?9?9?9*9*9?9?9?9?9?9?9*9?9*9*9?9*9,30.96,-25.47,1.7,95710,0,0,396,0,0,0,0,0,0,0,219,2.67,8,8,8333.0,102,9,999999999,68,0.2190,0,88,0.160,0.0,0.0
2026,7,23,6,18,?9?9?9?9E0?9?9?9?9?9?9?9?9?9?9?9*9?9*9*9?9*9,30.98,-21.61,2.4,95709,0,0,395,0,0,0,0,0,0,0,270,4.00,9,9,8333.0,2400,0,919999999,67,0.2190,0,88,0.160,0.0,0.0
2026,7,23,6,19,?9?9?9?9E0?9?9?9*9*9?9?9?9?9?9?9*9?9*9*9?9*9,31.01,-18.65,3.1,95708,0,0,395,0,0,0,0,0,0,0,225,5.33,8,8,8333.0,86,9,999999999,67,0.2190,0,88,0.160,0.0,0.0
2026,7,23,6,20,?9?9?9?9E0?9?9?9*9*9?9?9?9?9?9?9*9?9*9*9?9*9,31.03,-16.23,3.8,95706,0,0,384,0,0,0,0,0,0,0,225,6.67,8,8,8333.0,389,9,999999999,66,0.2190,0,88,0.160,0.0,0.0
2026,7,23,6,21,?9?9?9?9E0?9?9?9?9?9?9?9?9?9?9?9*9?9*9*9?9*9,31.05,-14.18,4.5,95705,0,0,380,0,0,0,0,0,0,0,270,8.00,5,5,8333.0,379,9,999999999,66,0.2190,0,88,0.160,0.0,0.0
2026,7,23,6,22,?9?9?9?9E0?9?9?9*9*9?9?9?9?9?9?9*9?9*9*9?9*9,31.07,-12.39,5.3,95703,305,1262,375,65,107,39,16488,19486,12003,4381,227,9.33,8,8,8333.0,156,9,999999999,68,0.2190,0,88,0.160,0.0,0.0
2026,7,23,6,23,?9?9?9?9E0?9?9?9*9*9?9?9?9?9?9?9*9?9*9*9?9*9,31.09,-10.80,6.0,95702,609,1323,388,206,285,100,35474,34405,20761,5219,237,10.67,7,7,8333.0,281,9,999999999,69,0.2190,0,88,0.160,0.0,0.0
2026,7,23,6,24,?9?9?9?9E0?9?9?9?9?9?9?9?9?9?9?9*9?9*9*9?9*9,31.11,-9.37,6.7,95701,875,1323,391,406,419,165,57022,43662,26349,4714,270,12.00,5,5,8333.0,472,9,999999999,71,0.2190,0,88,0.160,0.1,0.0
2026,7,23,6,25,?9?9?9?9E0?9?9?9*9*9?9?9?9?9?9?9*9?9*9*9?9*9,31.13,-8.07,7.4,95699,1086,1323,392,606,563,181,72890,46601,27648,3947,251,13.33,7,7,8333.0,598,9,999999999,74,0.2190,0,88,0.160,0.1,0.0
2026,7,23,6,26,?9?9?9?9E0?9?9?9*9*9?9?9?9?9?9?9*9?9*9*9?9*9,31.15,-6.87,8.1,95698,1226,1323,397,736,628,187,81275,43174,26688,3771,257,14.67,6,6,8333.0,702,9,999999999,77,0.2190,0,88,0.160,0.1,0.0
2026,7,23,6,27,?9?9?9?9E0?9?9?9?9?9?9?9?9?9?9?9*9?9*9*9?9*9,31.18,-5.77,8.8,95697,1287,1323,403,838,688,182,88828,45331,23874,3371,270,0.16,4,4,8333.0,797,9,999999999,80,0.2190,0,88,0.160,0.1,0.0
2026,7,23,6,28,?9?9?9?9E0?9?9?9*9*9?9?9?9?9?9?9*9?9*9*9?9*9,31.20,-4.73,9.5,95695,1265,1323,403,878,758,147,90452,57789,22004,2905,261,0.17,6,6,8333.0,901,9,999999999,76,0.2190,0,88,0.160,0.2,0.0
2026,7,23,6,29,?9?9?9?9E0?9?9?9*9*9?9?9?9?9?9?9*9?9*9*9?9*9,31.22,-3.76,10.2,95694,1160,1323,414,799,712,144,82959,64796,22215,3391,260,0.19,5,5,8333.0,866,9,999999999,72,0.2190,0,88,0.160,0.2,0.0
2026,7,23,6,30,?9?9?9?9E0?9?9?9?9?9?9?9?9?9?9?9*9?9*9*9?9*9,31.24,-2.85,10.9,95692,980,1323,398,691,675,145,69936,64346,20823,4620,270,0.20,4,4,8333.0,873,9,999999999,68,0.2190,0,88,0.160,0.1,0.0
2026,7,23,6,31,?9?9?9?9E0?9?9?9*9*9?9?9?9?9?9?9*9?9*9*9?9*9,31.26,-1.99,11.6,95691,737,1323,398,542,609,141,50113,52761,19344,6861,256,0.21,5,5,8333.0,976,9,999999999,69,0.2190,0,88,0.160,0.0,0.0
2026,7,23,6,32,?9?9?9?9E0?9?9?9*9*9?9?9?9?9?9?9*9?9*9*9?9*9,31.28,-1.17,12.3,95690,448,1323,398,323,421,122,27062,32390,15694,8546,252,0.23,6,6,8333.0,843,9,999999999,70,0.2190,0,88,0.160,0.0,0.0
2026,7,23,6,33,?9?9?9?9E0?9?9?9?9?9?9?9?9?9?9?9*9?9*9*9?9*9,31.30,-0.39,13.0,95688,133,1323,394,127,232,68,9230,15990,7098,5532,230,0.24,6,6,8333.0,9000,9,999999999,71,0.2190,0,88,0.160,0.0,0.0
2026,7,23,6,34,?9?9?9?9E0?9?9?9*9*9?9?9?9?9?9?9*9?9*9*9?9*9,31.32,0.36,13.7,95687,0,549,390,24,0,16,1387,4415,1124,1178,240,0.25,6,6,8333.0,500,9,999999999,71,0.2190,0,88,0.160,0.0,0.0
2026,7,23,6,35,?9?9?9?9E0?9?9?9*9*9?9?9?9?9?9?9*9?9*9*9?9*9,31.35,1.07,14.4,95686,0,0,391,0,0,0,0,0,0,0,232,0.27,7,7,8333.0,299,9,999999999,72,0.2190,0,88,0.160,0.0,0.0
2026,7,23,6,36,?9?9?9?9E0?9?9?9?9?9?9?9?9?9?9?9*9?9*9*9?9*9,31.37,1.75,15.2,95684,0,0,392,0,0,0,0,0,0,0,225,0.28,3,3,8333.0,191,9,999999999,72,0.2190,0,88,0.160,0.0,0.0
2026,7,23,6,37,?9?9?9?9E0?9?9?9*9*9?9?9?9?9?9?9*9?9*9*9?9*9,31.39,2.41,15.9,95683,0,0,390,0,0,0,0,0,0,0,224,0.29,8,8,8333.0,171,9,999999999,72,0.2190,0,88,0.160,0.0,0.0
2026,7,23,6,38,?9?9?9?9E0?9?9?9*9*9?9?9?9?9?9?9*9?9*9*9?9*9,31.41,3.04,16.6,95681,0,0,375,0,0,0,0,0,0,0,226,0.31,8,8,8333.0,630,9,999999999,72,0.2190,0,88,0.160,0.0,0.0
2026,7,23,6,39,?9?9?9?9E0?9?9?9*9*9?9?9?9?9?9?9*9?9*9*9?9*9,31.43,3.65,17.3,95680,0,0,382,0,0,0,0,0,0,0,227,0.32,8,8,8333.0,178,9,999999999,72,0.2190,0,88,0.160,0.0,0.0
2026,7,23,6,40,?9?9?9?9E0?9?9?9*9*9?9?9?9?9?9?9*9?9*9*9?9*9,31.45,4.23,18.0,95679,0,0,398,0,0,0,0,0,0,0,217,0.33,8,8,8333.0,118,9,999999999,68,0.2190,0,88,0.160,0.0,0.0
2026,7,23,6,41,?9?9?9?9E0?9?9?9*9*9?9?9?9?9?9?9*9?9*9*9?9*9,31.47,4.80,18.7,95677,0,0,396,0,0,0,0,0,0,0,219,0.35,8,8,8333.0,102,9,999999999,68,0.2190,0,88,0.160,0.0,0.0
2026,7,23,6,42,?9?9?9?9E0?9?9?9?9?9?9?9?9?9?9?9*9?9*9*9?9*9,31.50,5.35,19.4,95676,0,0,395,0,0,0,0,0,0,0,270,0.36,9,9,8333.0,2400,0,919999999,67,0.2190,0,88,0.160,0.0,0.0
2026,7,23,6,43,?9?9?9?9E0?9?9?9*9*9?9?9?9?9?9?9*9?9*9*9?9*9,31.52,5.89,20.1,95674,0,0,395,0,0,0,0,0,0,0,225,0.37,8,8,8333.0,86,9,999999999,67,0.2190,0,88,0.160,0.0,0.0
2026,7,23,6,44,?9?9?9?9E0?9?9?9*9*9?9?9?9?9?9?9*9?9*9*9?9*9,31.54,6.40,20.8,95673,0,0,384,0,0,0,0,0,0,0,225,0.39,8,8,8333.0,389,9,999999999,66,0.2190,0,88,0.160,0.0,0.0
2026,7,23,6,45,?9?9?9?9E0?9?9?9?9?9?9?9?9?9?9?9*9?9*9*9?9*9,31.56,6.91,21.5,95672,0,0,380,0,0,0,0,0,0,0,270,0.40,5,5,8333.0,379,9,999999999,66,0.2190,0,88,0.160,0.0,0.0
2026,7,23,6,46,?9?9?9?9E0?9?9?9*9*9?9?9?9?9?9?9*9?9*9*9?9*9,31.58,7.40,22.2,95670,305,1262,375,65,107,39,16488,19486,12003,4381,227,0.41,8,8,8333.0,156,9,999999999,68,0.2190,0,88,0.160,0.0,0.0
2026,7,23,6,47,?9?9?9?9E0?9?9?9*9*9?9?9?9?9?9?9*9?9*9*9?9*9,31.60,7.87,22.9,95669,609,1323,388,206,285,100,35474,34405,20761,5219,237,0.43,7,7,8333.0,281,9,999999999,69,0.2190,0,88,0.160,0.0,0.0
2026,7,23,6,48,?9?9?9?9E0?9?9?9?9?9?9?9?9?9?9?9*9?9*9*9?9*9,31.62,8.34,23.6,95668,875,1323,391,406,419,165,57022,43662,26349,4714,270,0.44,5,5,8333.0,472,9,999999999,71,0.2190,0,88,0.160,0.1,0.0
2026,7,23,6,49,?9?9?9?9E0?9?9?9*9*9?9?9?9?9?9?9*9?9*9*9?9*9,31.64,8.79,24.3,95666,1086,1323,392,606,563,181,72890,46601,27648,3947,251,0.45,7,7,8333.0,598,9,999999999,74,0.2190,0,88,0.160,0.1,0.0
2026,7,23,6,50,?9?9?9?9E0?9?9?9*9*9?9?9?9?9?9?9*9?9*9*9?9*9,31.67,9.23,25.0,95665,1226,1323,397,736,628,187,81275,43174,26688,3771,257,0.47,6,6,8333.0,702,9,999999999,77,0.2190,0,88,0.160,0.1,0.0
2026,7,23,6,51,?9?9?9?9E0?9?9?9?9?9?9?9?9?9?9?9*9?9*9*9?9*9,31.69,9.67,25.8,95663,1287,1323,403,838,688,182,88828,45331,23874,3371,270,0.48,4,4,8333.0,797,9,999999999,80,0.2190,0,88,0.160,0.1,0.0
2026,7,23,6,52,?9?9?9?9E0?9?9?9*9*9?9?9?9?9?9?9*9?9*9*9?9*9,31.71,10.09,26.5,95662,1265,1323,403,878,758,147,90452,57789,22004,2905,261,0.49,6,6,8333.0,901,9,999999999,76,0.2190,0,88,0.160,0.2,0.0
2026,7,23,6,53,?9?9?9?9E0?9?9?9*9*9?9?9?9?9?9?9*9?9*9*9?9*9,31.73,10.50,27.2,95661,1160,1323,414,799,712,144,82959,64796,22215,3391,260,0.51,5,5,8333.0,866,9,999999999,72,0.2190,0,88,0.160,0.2,0.0
2026,7,23,6,54,?9?9?9?9E0?9?9?9?9?9?9?9?9?9?9?9*9?9*9*9?9*9,31.75,10.91,27.9,95659,980,1323,398,691,675,145,69936,64346,20823,4620,270,0.52,4,4,8333.0,873,9,999999999,68,0.2190,0,88,0.160,0.1,0.0
2026,7,23,6,55,?9?9?9?9E0?9?9?9*9*9?9?9?9?9?9?9*9?9*9*9?9*9,31.77,11.30,28.6,95658,737,1323,398,542,609,141,50113,52761,19344,6861,256,0.53,5,5,8333.0,976,9,999999999,69,0.2190,0,88,0.160,0.0,0.0
2026,7,23,6,56,?9?9?9?9E0?9?9?9*9*9?9?9?9?9?9?9*9?9*9*9?9*9,31.79,11.69,29.3,95657,448,1323,398,323,421,122,27062,32390,15694,8546,252,0.55,6,6,8333.0,843,9,999999999,70,0.2190,0,88,0.160,0.0,0.0
2026,7,23,6,57,?9?9?9?9E0?9?9?9?9?9?9?9?9?9?9?9*9?9*9*9?9*9,31.81,12.07,30.0,95655,133,1323,394,127,232,68,9230,15990,7098,5532,230,0.56,6,6,8333.0,9000,9,999999999,71,0.2190,0,88,0.160,0.0,0.0
2026,7,23,6,58,?9?9?9?9E0?9?9?9*9*9?9?9?9?9?9?9*9?9*9*9?9*9,31.84,12.44,30.7,95654,0,549,390,24,0,16,1387,4415,1124,1178,240,0.57,6,6,8333.0,500,9,999999999,71,0.2190,0,88,0.160,0.0,0.0
2026,7,23,6,59,?9?9?9?9E0?9?9?9*9*9?9?9?9?9?9?9*9?9*9*9?9*9,31.86,12.81,31.4,95652,0,0,391,0,0,0,0,0,0,0,232,0.59,7,7,8333.0,299,9,999999999,72,0.2190,0,88,0.160,0.0,0.0
2026,7,23,7,0,?9?9?9?9E0?9?9?9?9?9?9?9?9?9?9?9*9?9*9*9?9*9,31.88,13.17,32.1,95651,0,0,392,0,0,0,0,0,0,0,225,0.60,3,3,8333.0,191,9,999999999,72,0.2190,0,88,0.160,0.0,0.0
2026,7,23,7,1,?9?9?9?9E0?9?9?9*9*9?9?9?9?9?9?9*9?9*9*9?9*9,31.90,13.52,32.8,95650,0,0,390,0,0,0,0,0,0,0,224,0.61,8,8,8333.0,171,9,999999999,72,0.2190,0,88,0.160,0.0,0.0
2026,7,23,7,2,?9?9?9?9E0?9?9?9*9*9?9?9?9?9?9?9*9?9*9*9?9*9,31.92,13.87,33.5,95648,0,0,375,0,0,0,0,0,0,0,226,0.63,8,8,8333.0,630,9,999999999,72,0.2190,0,88,0.160,0.0,0.0
2026,7,23,7,3,?9?9?9?9E0?9?9?9*9*9?9?9?9?9?9?9*9?9*9*9?9*9,31.94,14.21,34.2,95647,0,0,382,0,0,0,0,0,0,0,227,0.64,8,8,8333.0,178,9,999999999,72,0.2190,0,88,0.160,0.0,0.0
2026,7,23,7,4,?9?9?9?9E0?9?9?9*9*9?9?9?9?9?9?9*9?9*9*9?9*9,31.96,14.54,34.9,95646,0,0,398,0,0,0,0,0,0,0,217,0.65,8,8,8333.0,118,9,999999999,68,0.2190,0,88,0.160,0.0,0.0
2026,7,23,7,5,?9?9?9?9E0?9?9?9*9*9?9?9?9?9?9?9*9?9*9*9?9*9,31.99,14.87,35.7,95644,0,0,396,0,0,0,0,0,0,0,219,0.67,8,8,8333.0,102,9,999999999,68,0.2190,0,88,0.160,0.0,0.0
2026,7,23,7,6,?9?9?9?9E0?9?9?9?9?9?9?9?9?9?9?9*9?9*9*9?9*9,32.01,15.20,36.4,95643,0,0,395,0,0,0,0,0,0,0,270,0.68,9,9,8333.0,2400,0,919999999,67,0.2190,0,88,0.160,0.0,0.0
2026,7,23,7,7,?9?9?9?9E0?9?9?9*9*9?9?9?9?9?9?9*9?9*9*9?9*9,32.03,15.52,37.1,95641,0,0,395,0,0,0,0,0,0,0,225,0.69,8,8,8333.0,86,9,999999999,67,0.2190,0,88,0.160,0.0,0.0
2026,7,23,7,8,?9?9?9?9E0?9?9?9*9*9?9?9?9?9?9?9*9?9*9*9?9*9,32.05,15.83,37.8,95640,0,0,384,0,0,0,0,0,0,0,225,0.71,8,8,8333.0,389,9,999999999,66,0.2190,0,88,0.160,0.0,0.0
2026,7,23,7,9,?9?9?9?9E0?9?9?9?9?9?9?9?9?9?9?9*9?9*9*9?9*9,32.07,16.14,38.5,95639,0,0,380,0,0,0,0,0,0,0,270,0.72,5,5,8333.0,379,9,999999999,66,0.2190,0,88,0.160,0.0,0.0
2026,7,23,7,10,?9?9?9?9E0?9?9?9*9*9?9?9?9?9?9?9*9?9*9*9?9*9,32.09,16.44,39.2,95637,305,1262,375,65,107,39,16488,19486,12003,4381,227,0.73,8,8,8333.0,156,9,999999999,68,0.2190,0,88,0.160,0.0,0.0
2026,7,23,7,11,?9?9?9?9E0?9?9?9*9*9?9?9?9?9?9?9*9?9*9*9?9*9,32.11,16.74,39.9,95636,609,1323,388,206,285,100,35474,34405,20761,5219,237,0.75,7,7,8333.0,281,9,999999999,69,0.2190,0,88,0.160,0.0,0.0
2026,7,23,7,12,?9?9?9?9E0?9?9?9?9?9?9?9?9?9?9?9*9?9*9*9?9*9,32.13,17.04,40.6,95635,875,1323,391,406,419,165,57022,43662,26349,4714,270,0.76,5,5,8333.0,472,9,999999999,71,0.2190,0,88,0.160,0.1,0.0
2026,7,23,7,13,?9?9?9?9E0?9?9?9*9*9?9?9?9?9?9?9*9?9*9*9?9*9,32.16,17.33,41.3,95633,1086,1323,392,606,563,181,72890,46601,27648,3947,251,0.77,7,7,8333.0,598,9,999999999,74,0.2190,0,88,0.160,0.1,0.0
2026,7,23,7,14,?9?9?9?9E0?9?9?9*9*9?9?9?9?9?9?9*9?9*9*9?9*9,32.18,17.62,42.0,95632,1226,1323,397,736,628,187,81275,43174,26688,3771,257,0.79,6,6,8333.0,702,9,999999999,77,0.2190,0,88,0.160,0.1,0.0
2026,7,23,7,15,?9?9?9?9E0?9?9?9?9?9?9?9?9?9?9?9*9?9*9*9?9*9,32.20,17.91,42.7,95630,1287,1323,403,838,688,182,88828,45331,23874,3371,270,0.80,4,4,8333.0,797,9,999999999,80,0.2190,0,88,0.160,0.1,0.0
2026,7,23,7,16,?9?9?9?9E0?9?9?9*9*9?9?9?9?9?9?9*9?9*9*9?9*9,32.22,18.19,43.4,95629,1265,1323,403,878,758,147,90452,57789,22004,2905,261,0.81,6,6,8333.0,901,9,999999999,76,0.2190,0,88,0.160,0.2,0.0
2026,7,23,7,17,?9?9?9?9E0?9?9?9*9*9?9?9?9?9?9?9*9?9*9*9?9*9,32.24,18.46,44.1,95628,1160,1323,414,799,712,144,82959,64796,22215,3391,260,0.83,5,5,8333.0,866,9,999999999,72,0.2190,0,88,0.160,0.2,0.0
2026,7,23,7,18,?9?9?9?9E0?9?9?9?9?9?9?9?9?9?9?9*9?9*9*9?9*9,32.26,18.74,44.8,95626,980,1323,398,691,675,145,69936,64346,20823,4620,270,0.84,4,4,8333.0,873,9,999999999,68,0.2190,0,88,0.160,0.1,0.0
2026,7,23,7,19,?9?9?9?9E0?9?9?9*9*9?9?9?9?9?9?9*9?9*9*9?9*9,32.28,19.01,45.5,95625,737,1323,398,542,609,141,50113,52761,19344,6861,256,0.85,5,5,8333.0,976,9,999999999,69,0.2190,0,88,0.160,0.0,0.0
2026,7,23,7,20,?9?9?9?9E0?9?9?9*9*9?9?9?9?9?9?9*9?9*9*9?9*9,32.31,19.27,46.3,95623,448,1323,398,323,421,122,27062,32390,15694,8546,252,0.87,6,6,8333.0,843,9,999999999,70,0.2190,0,88,0.160,0.0,0.0
2026,7,23,7,21,?9?9?9?9E0?9?9?9?9?9?9?9?9?9?9?9*9?9*9*9?9*9,32.33,19.54,47.0,95622,133,1323,394,127,232,68,9230,15990,7098,5532,230,0.88,6,6,8333.0,9000,9,999999999,71,0.2190,0,88,0.160,0.0,0.0
2026,7,23,7,22,?9?9?9?9E0?9?9?9*9*9?9?9?9?9?9?9*9?9*9*9?9*9,32.35,19.80,47.7,95621,0,549,390,24,0,16,1387,4415,1124,1178,240,0.89,6,6,8333.0,500,9,999999999,71,0.2190,0,88,0.160,0.0,0.0
2026,7,23,7,23,?9?9?9?9E0?9?9?9*9*9?9?9?9?9?9?9*9?9*9*9?9*9,32.37,20.06,48.4,95619,0,0,391,0,0,0,0,0,0,0,232,0.91,7,7,8333.0,299,9,999999999,72,0.2190,0,88,0.160,0.0,0.0
2026,7,23,7,24,?9?9?9?9E0?9?9?9?9?9?9?9?9?9?9?9*9?9*9*9?9*9,32.39,20.31,49.1,95618,0,0,392,0,0,0,0,0,0,0,225,0.92,3,3,8333.0,191,9,999999999,72,0.2190,0,88,0.160,0.0,0.0
2026,7,23,7,25,?9?9?9?9E0?9?9?9*9*9?9?9?9?9?9?9*9?9*9*9?9*9,32.41,20.56,49.8,95617,0,0,390,0,0,0,0,0,0,0,224,0.93,8,8,8333.0,171,9,999999999,72,0.2190,0,88,0.160,0.0,0.0
2026,7,23,7,26,?9?9?9?9E0?9?9?9*9*9?9?9?9?9?9?9*9?9*9*9?9*9,32.43,20.81,50.5,95615,0,0,375,0,0,0,0,0,0,0,226,0.95,8,8,8333.0,630,9,999999999,72,0.2190,0,88,0.160,0.0,0.0
2026,7,23,7,27,?9?9?9?9E0?9?9?9*9*9?9?9?9?9?9?9*9?9*9*9?9*9,32.45,21.06,51.2,95614,0,0,382,0,0,0,0,0,0,0,227,0.96,8,8,8333.0,178,9,999999999,72,0.2190,0,88,0.160,0.0,0.0
2026,7,23,7,28,?9?9?9?9E0?9?9?9*9*9?9?9?9?9?9?9*9?9*9*9?9*9,32.48,21.30,51.9,95612,0,0,398,0,0,0,0,0,0,0,217,0.97,8,8,8333.0,118,9,999999999,68,0.2190,0,88,0.160,0.0,0.0
2026,7,23,7,29,?9?9?9?9E0?9?9?9*9*9?9?9?9?9?9?9*9?9*9*9?9*9,32.50,21.54,52.6,95611,0,0,396,0,0,0,0,0,0,0,219,0.99,8,8,8333.0,102,9,999999999,68,0.2190,0,88,0.160,0.0,0.0
2026,7,23,7,30,?9?9?9?9E0?9?9?9?9?9?9?9?9?9?9?9*9?9*9*9?9*9,32.52,21.78,53.3,95610,0,0,395,0,0,0,0,0,0,0,270,1.00,9,9,8333.0,2400,0,919999999,67,0.2190,0,88,0.160,0.0,0.0
2026,7,23,7,31,?9?9?9?9E0?9?9?9*9*9?9?9?9?9?9?9*9?9*9*9?9*9,32.54,22.01,54.0,95608,0,0,395,0,0,0,0,0,0,0,225,1.01,8,8,8333.0,86,9,999999999,67,0.2190,0,88,0.160,0.0,0.0
2026,7,23,7,32,?9?9?9?9E0?9?9?9*9*9?9?9?9?9?9?9*9?9*9*9?9*9,32.56,22.25,54.7,95607,0,0,384,0,0,0,0,0,0,0,225,1.03,8,8,8333.0,389,9,999999999,66,0.2190,0,88,0.160,0.0,0.0
2026,7,23,7,33,?9?9?9?9E0?9?9?9?9?9?9?9?9?9?9?9*9?9*9*9?9*9,32.58,22.48,55.4,95606,0,0,380,0,0,0,0,0,0,0,270,1.04,5,5,8333.0,379,9,999999999,66,0.2190,0,88,0.160,0.0,0.0
2026,7,23,7,34,?9?9?9?9E0?9?9?9*9*9?9?9?9?9?9?9*9?9*9*9?9*9,32.60,22.71,56.2,95604,305,1262,375,65,107,39,16488,19486,12003,4381,227,1.05,8,8,8333.0,156,9,999999999,68,0.2190,0,88,0.160,0.0,0.0
2026,7,23,7,35,?9?9?9?9E0?9?9?9*9*9?9?9?9?9?9?9*9?9*9*9?9*9,32.62,22.93,56.9,95603,609,1323,388,206,285,100,35474,34405,20761,5219,237,1.07,7,7,8333.0,281,9,999999999,69,0.2190,0,88,0.160,0.0,0.0
2026,7,23,7,36,?9?9?9?9E0?9?9?9?9?9?9?9?9?9?9?9*9?9*9*9?9*9,32.65,23.16,57.6,95601,875,1323,391,406,419,165,57022,43662,26349,4714,270,1.08,5,5,8333.0,472,9,999999999,71,0.2190,0,88,0.160,0.1,0.0
2026,7,23,7,37,?9?9?9?9E0?9?9?9*9*9?9?9?9?9?9?9*9?9*9*9?9*9,32.67,23.38,58.3,95600,1086,1323,392,606,563,181,72890,46601,27648,3947,251,1.09,7,7,8333.0,598,9,999999999,74,0.2190,0,88,0.160,0.1,0.0
2026,7,23,7,38,?9?9?9?9E0?9?9?9*9*9?9?9?9?9?9?9*9?9*9*9?9*9,32.69,23.60,59.0,95599,1226,1323,397,736,628,187,81275,43174,26688,3771,257,1.11,6,6,8333.0,702,9,999999999,77,0.2190,0,88,0.160,0.1,0.0
2026,7,23,7,39,?9?9?9?9E0?9?9?9?9?9?9?9?9?9?9?9*9?9*9*9?9*9,32.71,23.82,59.7,95597,1287,1323,403,838,688,182,88828,45331,23874,3371,270,1.12,4,4,8333.0,797,9,999999999,80,0.2190,0,88,0.160,0.1,0.0
2026,7,23,7,40,?9?9?9?9E0?9?9?9*9*9?9?9?9?9?9?9*9?9*9*9?9*9,32.74,23.95,60.1,95602,1265,1323,403,878,758,147,90452,57789,22004,2905,261,1.22,6,6,8333.0,901,9,999999999,76,0.2190,0,88,0.160,0.2,0.0
2026,7,23,7,41,?9?9?9?9E0?9?9?9*9*9?9?9?9?9?9?9*9?9*9*9?9*9,32.69,23.76,59.5,95606,1160,1323,414,799,712,144,82959,64796,22215,3391,260,0.55,5,5,8333.0,866,9,999999999,72,0.2190,0,88,0.160,0.2,0.0
2026,7,23,7,42,?9?9?9?9E0?9?9?9?9?9?9?9?9?9?9?9*9?9*9*9?9*9,32.67,23.54,58.8,95606,980,1323,398,691,675,145,69936,64346,20823,4620,270,1.00,4,4,8333.0,873,9,999999999,68,0.2190,0,88,0.160,0.1,0.0
2026,7,23,7,43,?9?9?9?9E0?9?9?9*9*9?9?9?9?9?9?9*9?9*9*9?9*9,32.60,23.34,58.3,95601,737,1323,398,542,609,141,50113,52761,19344,6861,256,0.17,5,5,8333.0,976,9,999999999,69,0.2190,0,88,0.160,0.0,0.0
2026,7,23,7,44,?9?9?9?9E0?9?9?9*9*9?9?9?9?9?9?9*9?9*9*9?9*9,32.58,23.27,58.2,95601,448,1323,398,323,421,122,27062,32390,15694,8546,252,3.47,6,6,8333.0,843,9,999999999,70,0.2190,0,88,0.160,0.0,0.0
2026,7,23,7,45,?9?9?9?9E0?9?9?9?9?9?9?9?9?9?9?9*9?9*9*9?9*9,32.59,23.33,58.3,95600,133,1323,394,127,232,68,9230,15990,7098,5532,230,2.16,6,6,8333.0,9000,9,999999999,71,0.2190,0,88,0.160,0.0,0.0
2026,7,23,7,46,?9?9?9?9E0?9?9?9*9*9?9?9?9?9?9?9*9?9*9*9?9*9,32.60,23.32,58.3,95607,0,549,390,24,0,16,1387,4415,1124,1178,240,1.33,6,6,8333.0,500,9,999999999,71,0.2190,0,88,0.160,0.0,0.0
2026,7,23,7,47,?9?9?9?9E0?9?9?9*9*9?9?9?9?9?9?9*9?9*9*9?9*9,32.55,23.28,58.3,95598,0,0,391,0,0,0,0,0,0,0,232,1.54,7,7,8333.0,299,9,999999999,72,0.2190,0,88,0.160,0.0,0.0
2026,7,23,7,48,?9?9?9?9E0?9?9?9?9?9?9?9?9?9?9?9*9?9*9*9?9*9,32.53,23.36,58.7,95597,0,0,392,0,0,0,0,0,0,0,225,3.09,3,3,8333.0,191,9,999999999,72,0.2190,0,88,0.160,0.0,0.0
2026,7,23,7,49,?9?9?9?9E0?9?9?9*9*9?9?9?9?9?9?9*9?9*9*9?9*9,32.54,23.43,58.8,95597,0,0,390,0,0,0,0,0,0,0,224,1.46,8,8,8333.0,171,9,999999999,72,0.2190,0,88,0.160,0.0,0.0
2026,7,23,7,50,?9?9?9?9E0?9?9?9*9*9?9?9?9?9?9?9*9?9*9*9?9*9,32.61,23.44,58.7,95596,0,0,375,0,0,0,0,0,0,0,226,1.47,8,8,8333.0,630,9,999999999,72,0.2190,0,88,0.160,0.0,0.0
2026,7,23,7,51,?9?9?9?9E0?9?9?9*9*9?9?9?9?9?9?9*9?9*9*9?9*9,32.64,23.35,58.3,95590,0,0,382,0,0,0,0,0,0,0,227,0.85,8,8,8333.0,178,9,999999999,72,0.2190,0,88,0.160,0.0,0.0
2026,7,23,7,52,?9?9?9?9E0?9?9?9*9*9?9?9?9?9?9?9*9?9*9*9?9*9,32.67,23.42,58.4,95593,0,0,398,0,0,0,0,0,0,0,217,2.49,8,8,8333.0,118,9,999999999,68,0.2190,0,88,0.160,0.0,0.0
2026,7,23,7,53,?9?9?9?9E0?9?9?9*9*9?9?9?9?9?9?9*9?9*9*9?9*9,32.68,23.48,58.6,95595,0,0,396,0,0,0,0,0,0,0,219,0.67,8,8,8333.0,102,9,999999999,68,0.2190,0,88,0.160,0.0,0.0
2026,7,23,7,54,?9?9?9?9E0?9?9?9?9?9?9?9?9?9?9?9*9?9*9*9?9*9,32.65,23.28,58.0,95590,0,0,395,0,0,0,0,0,0,0,270,1.07,9,9,8333.0,2400,0,919999999,67,0.2190,0,88,0.160,0.0,0.0
2026,7,23,7,55,?9?9?9?9E0?9?9?9*9*9?9?9?9?9?9?9*9?9*9*9?9*9,32.64,23.27,58.0,95595,0,0,395,0,0,0,0,0,0,0,225,0.99,8,8,8333.0,86,9,999999999,67,0.2190,0,88,0.160,0.0,0.0
2026,7,23,7,56,?9?9?9?9E0?9?9?9*9*9?9?9?9?9?9?9*9?9*9*9?9*9,32.66,23.34,58.2,95596,0,0,384,0,0,0,0,0,0,0,225,5.61,8,8,8333.0,389,9,999999999,66,0.2190,0,88,0.160,0.0,0.0
2026,7,23,7,57,?9?9?9?9E0?9?9?9?9?9?9?9?9?9?9?9*9?9*9*9?9*9,32.70,23.50,58.6,95595,0,0,380,0,0,0,0,0,0,0,270,2.89,5,5,8333.0,379,9,999999999,66,0.2190,0,88,0.160,0.0,0.0
2026,7,23,7,58,?9?9?9?9E0?9?9?9*9*9?9?9?9?9?9?9*9?9*9*9?9*9,32.80,23.50,58.3,95591,305,1262,375,65,107,39,16488,19486,12003,4381,227,1.70,8,8,8333.0,156,9,999999999,68,0.2190,0,88,0.160,0.0,0.0
2026,7,23,7,59,?9?9?9?9E0?9?9?9*9*9?9?9?9?9?9?9*9?9*9*9?9*9,32.86,23.56,58.3,95587,609,1323,388,206,285,100,35474,34405,20761,5219,237,1.72,7,7,8333.0,281,9,999999999,69,0.2190,0,88,0.160,0.0,0.0
2026,7,23,8,0,?9?9?9?9E0?9?9?9?9?9?9?9?9?9?9?9*9?9*9*9?9*9,32.83,23.41,57.8,95584,875,1323,391,406,419,165,57022,43662,26349,4714,270,1.46,5,5,8333.0,472,9,999999999,71,0.2190,0,88,0.160,0.1,0.0
2026,7,23,8,1,?9?9?9?9E0?9?9?9*9*9?9?9?9?9?9?9*9?9*9*9?9*9,32.81,23.43,58.0,95579,1086,1323,392,606,563,181,72890,46601,27648,3947,251,6.39,7,7,8333.0,598,9,999999999,74,0.2190,0,88,0.160,0.1,0.0
2026,7,23,8,2,?9?9?9?9E0?9?9?9*9*9?9?9?9?9?9?9*9?9*9*9?9*9,32.79,23.51,58.3,95578,1226,1323,397,736,628,187,81275,43174,26688,3771,257,1.64,6,6,8333.0,702,9,999999999,77,0.2190,0,88,0.160,0.1,0.0
2026,7,23,8,3,?9?9?9?9E0?9?9?9?9?9?9?9?9?9?9?9*9?9*9*9?9*9,32.81,23.41,57.9,95575,1287,1323,403,838,688,182,88828,45331,23874,3371,270,1.91,4,4,8333.0,797,9,999999999,80,0.2190,0,88,0.160,0.1,0.0
2026,7,23,8,4,?9?9?9?9E0?9?9?9*9*9?9?9?9?9?9?9*9?9*9*9?9*9,32.89,23.39,57.6,95575,1265,1323,403,878,758,147,90452,57789,22004,2905,261,2.30,6,6,8333.0,901,9,999999999,76,0.2190,0,88,0.160,0.2,0.0
2026,7,23,8,5,?9?9?9?9E0?9?9?9*9*9?9?9?9?9?9?9*9?9*9*9?9*9,32.94,23.41,57.5,95578,1160,1323,414,799,712,144,82959,64796,22215,3391,260,1.40,5,5,8333.0,866,9,999999999,72,0.2190,0,88,0.160,0.2,0.0
2026,7,23,8,6,?9?9?9?9E0?9?9?9?9?9?9?9?9?9?9?9*9?9*9*9?9*9,32.83,23.35,57.6,95571,980,1323,398,691,675,145,69936,64346,20823,4620,270,1.44,4,4,8333.0,873,9,999999999,68,0.2190,0,88,0.160,0.1,0.0
2026,7,23,8,7,?9?9?9?9E0?9?9?9*9*9?9?9?9?9?9?9*9?9*9*9?9*9,32.84,23.50,58.1,95573,737,1323,398,542,609,141,50113,52761,19344,6861,256,3.97,5,5,8333.0,976,9,999999999,69,0.2190,0,88,0.160,0.0,0.0
2026,7,23,8,8,?9?9?9?9E0?9?9?9*9*9?9?9?9?9?9?9*9?9*9*9?9*9,32.87,23.58,58.3,95571,448,1323,398,323,421,122,27062,32390,15694,8546,252,1.95,6,6,8333.0,843,9,999999999,70,0.2190,0,88,0.160,0.0,0.0
2026,7,23,8,9,?9?9?9?9E0?9?9?9?9?9?9?9?9?9?9?9*9?9*9*9?9*9,32.87,23.50,58.0,95570,133,1323,394,127,232,68,9230,15990,7098,5532,230,1.00,6,6,8333.0,9000,9,999999999,71,0.2190,0,88,0.160,0.0,0.0
2026,7,23,8,10,?9?9?9?9E0?9?9?9*9*9?9?9?9?9?9?9*9?9*9*9?9*9,32.91,23.42,57.6,95570,0,549,390,24,0,16,1387,4415,1124,1178,240,0.71,6,6,8333.0,500,9,999999999,71,0.2190,0,88,0.160,0.0,0.0
2026,7,23,8,11,?9?9?9?9E0?9?9?9*9*9?9?9?9?9?9?9*9?9*9*9?9*9,32.90,23.34,57.4,95565,0,0,391,0,0,0,0,0,0,0,232,1.31,7,7,8333.0,299,9,999999999,72,0.2190,0,88,0.160,0.0,0.0
2026,7,23,8,12,?9?9?9?9E0?9?9?9?9?9?9?9?9?9?9?9*9?9*9*9?9*9,32.92,23.42,57.6,95570,0,0,392,0,0,0,0,0,0,0,225,2.55,3,3,8333.0,191,9,999999999,72,0.2190,0,88,0.160,0.0,0.0
2026,7,23,8,13,?9?9?9?9E0?9?9?9*9*9?9?9?9?9?9?9*9?9*9*9?9*9,32.94,23.54,57.9,95572,0,0,390,0,0,0,0,0,0,0,224,1.39,8,8,8333.0,171,9,999999999,72,0.2190,0,88,0.160,0.0,0.0
2026,7,23,8,14,?9?9?9?9E0?9?9?9*9*9?9?9?9?9?9?9*9?9*9*9?9*9,32.89,23.40,57.6,95570,0,0,375,0,0,0,0,0,0,0,226,0.87,8,8,8333.0,630,9,999999999,72,0.2190,0,88,0.160,0.0,0.0
2026,7,23,8,15,?9?9?9?9E0?9?9?9*9*9?9?9?9?9?9?9*9?9*9*9?9*9,32.85,23.35,57.6,95570,0,0,382,0,0,0,0,0,0,0,227,0.93,8,8,8333.0,178,9,999999999,72,0.2190,0,88,0.160,0.0,0.0
2026,7,23,8,16,?9?9?9?9E0?9?9?9*9*9?9?9?9?9?9?9*9?9*9*9?9*9,32.89,23.42,57.7,95571,0,0,398,0,0,0,0,0,0,0,217,2.14,8,8,8333.0,118,9,999999999,68,0.2190,0,88,0.160,0.0,0.0
2026,7,23,8,17,?9?9?9?9E0?9?9?9*9*9?9?9?9?9?9?9*9?9*9*9?9*9,32.91,23.45,57.7,95569,0,0,396,0,0,0,0,0,0,0,219,1.10,8,8,8333.0,102,9,999999999,68,0.2190,0,88,0.160,0.0,0.0
2026,7,23,8,18,?9?9?9?9E0?9?9?9?9?9?9?9?9?9?9?9*9?9*9*9?9*9,32.96,23.47,57.6,95565,0,0,395,0,0,0,0,0,0,0,270,2.22,9,9,8333.0,2400,0,919999999,67,0.2190,0,88,0.160,0.0,0.0
2026,7,23,8,19,?9?9?9?9E0?9?9?9*9*9?9?9?9?9?9?9*9?9*9*9?9*9,32.96,23.57,58.0,95566,0,0,395,0,0,0,0,0,0,0,225,1.29,8,8,8333.0,86,9,999999999,67,0.2190,0,88,0.160,0.0,0.0
2026,7,23,8,20,?9?9?9?9E0?9?9?9*9*9?9?9?9?9?9?9*9?9*9*9?9*9,32.89,23.44,57.8,95563,0,0,384,0,0,0,0,0,0,0,225,0.87,8,8,8333.0,389,9,999999999,66,0.2190,0,88,0.160,0.0,0.0
2026,7,23,8,21,?9?9?9?9E0?9?9?9?9?9?9?9?9?9?9?9*9?9*9*9?9*9,32.85,23.44,57.9,95567,0,0,380,0,0,0,0,0,0,0,270,1.49,5,5,8333.0,379,9,999999999,66,0.2190,0,88,0.160,0.0,0.0
2026,7,23,8,22,?9?9?9?9E0?9?9?9*9*9?9?9?9?9?9?9*9?9*9*9?9*9,32.88,23.52,58.0,95562,305,1262,375,65,107,39,16488,19486,12003,4381,227,1.93,8,8,8333.0,156,9,999999999,68,0.2190,0,88,0.160,0.0,0.0
2026,7,23,8,23,?9?9?9?9E0?9?9?9*9*9?9?9?9?9?9?9*9?9*9*9?9*9,32.94,23.49,57.8,95570,609,1323,388,206,285,100,35474,34405,20761,5219,237,1.14,7,7,8333.0,281,9,999999999,69,0.2190,0,88,0.160,0.0,0.0
2026,7,23,8,24,?9?9?9?9E0?9?9?9?9?9?9?9?9?9?9?9*9?9*9*9?9*9,32.88,23.50,58.0,95561,875,1323,391,406,419,165,57022,43662,26349,4714,270,1.13,5,5,8333.0,472,9,999999999,71,0.2190,0,88,0.160,0.1,0.0
2026,7,23,8,25,?9?9?9?9E0?9?9?9*9*9?9?9?9?9?9?9*9?9*9*9?9*9,32.86,23.55,58.2,95560,1086,1323,392,606,563,181,72890,46601,27648,3947,251,1.49,7,7,8333.0,598,9,999999999,74,0.2190,0,88,0.160,0.1,0.0
2026,7,23,8,26,?9?9?9?9E0?9?9?9*9*9?9?9?9?9?9?9*9?9*9*9?9*9,32.91,23.50,57.9,95560,1226,1323,397,736,628,187,81275,43174,26688,3771,257,2.06,6,6,8333.0,702,9,999999999,77,0.2190,0,88,0.160,0.1,0.0
2026,7,23,8,27,?9?9?9?9E0?9?9?9?9?9?9?9?9?9?9?9*9?9*9*9?9*9,33.01,23.52,57.7,95554,1287,1323,403,838,688,182,88828,45331,23874,3371,270,1.66,4,4,8333.0,797,9,999999999,80,0.2190,0,88,0.160,0.1,0.0
2026,7,23,8,28,?9?9?9?9E0?9?9?9*9*9?9?9?9?9?9?9*9?9*9*9?9*9,33.04,23.63,57.9,95560,1265,1323,403,878,758,147,90452,57789,22004,2905,261,1.04,6,6,8333.0,901,9,999999999,76,0.2190,0,88,0.160,0.2,0.0
2026,7,23,8,29,?9?9?9?9E0?9?9?9*9*9?9?9?9?9?9?9*9?9*9*9?9*9,33.05,23.50,57.4,95560,1160,1323,414,799,712,144,82959,64796,22215,3391,260,1.03,5,5,8333.0,866,9,999999999,72,0.2190,0,88,0.160,0.2,0.0
2026,7,23,8,30,?9?9?9?9E0?9?9?9?9?9?9?9?9?9?9?9*9?9*9*9?9*9,33.09,23.53,57.4,95558,980,1323,398,691,675,145,69936,64346,20823,4620,270,1.74,4,4,8333.0,873,9,999999999,68,0.2190,0,88,0.160,0.1,0.0
2026,7,23,8,31,?9?9?9?9E0?9?9?9*9*9?9?9?9?9?9?9*9?9*9*9?9*9,33.10,23.55,57.4,95561,737,1323,398,542,609,141,50113,52761,19344,6861,256,2.44,5,5,8333.0,976,9,999999999,69,0.2190,0,88,0.160,0.0,0.0
2026,7,23,8,32,?9?9?9?9E0?9?9?9*9*9?9?9?9?9?9?9*9?9*9*9?9*9,33.14,23.59,57.5,95560,448,1323,398,323,421,122,27062,32390,15694,8546,252,1.37,6,6,8333.0,843,9,999999999,70,0.2190,0,88,0.160,0.0,0.0
2026,7,23,8,33,?9?9?9?9E0?9?9?9?9?9?9?9?9?9?9?9*9?9*9*9?9*9,33.18,23.56,57.2,95560,133,1323,394,127,232,68,9230,15990,7098,5532,230,1.11,6,6,8333.0,9000,9,999999999,71,0.2190,0,88,0.160,0.0,0.0
2026,7,23,8,34,?9?9?9?9E0?9?9?9*9*9?9?9?9?9?9?9*9?9*9*9?9*9,33.22,23.65,57.4,95555,0,549,390,24,0,16,1387,4415,1124,1178,240,3.76,6,6,8333.0,500,9,999999999,71,0.2190,0,88,0.160,0.0,0.0
2026,7,23,8,35,?9?9?9?9E0?9?9?9*9*9?9?9?9?9?9?9*9?9*9*9?9*9,33.21,23.65,57.4,95557,0,0,391,0,0,0,0,0,0,0,232,1.57,7,7,8333.0,299,9,999999999,72,0.2190,0,88,0.160,0.0,0.0
2026,7,23,8,36,?9?9?9?9E0?9?9?9?9?9?9?9?9?9?9?9*9?9*9*9?9*9,33.13,23.64,57.6,95550,0,0,392,0,0,0,0,0,0,0,225,6.89,3,3,8333.0,191,9,999999999,72,0.2190,0,88,0.160,0.0,0.0
2026,7,23,8,37,?9?9?9?9E0?9?9?9*9*9?9?9?9?9?9?9*9?9*9*9?9*9,33.19,23.75,57.9,95550,0,0,390,0,0,0,0,0,0,0,224,4.05,8,8,8333.0,171,9,999999999,72,0.2190,0,88,0.160,0.0,0.0
2026,7,23,8,38,?9?9?9?9E0?9?9?9*9*9?9?9?9?9?9?9*9?9*9*9?9*9,33.13,23.70,57.9,95555,0,0,375,0,0,0,0,0,0,0,226,2.40,8,8,8333.0,630,9,999999999,72,0.2190,0,88,0.160,0.0,0.0
2026,7,23,8,39,?9?9?9?9E0?9?9?9*9*9?9?9?9?9?9?9*9?9*9*9?9*9,33.16,23.82,58.2,95551,0,0,382,0,0,0,0,0,0,0,227,2.21,8,8,8333.0,178,9,999999999,72,0.2190,0,88,0.160,0.0,0.0
2026,7,23,8,40,?9?9?9?9E0?9?9?9*9*9?9?9?9?9?9?9*9?9*9*9?9*9,33.21,23.82,58.0,95554,0,0,398,0,0,0,0,0,0,0,217,1.07,8,8,8333.0,118,9,999999999,68,0.2190,0,88,0.160,0.0,0.0
2026,7,23,8,41,?9?9?9?9E0?9?9?9*9*9?9?9?9?9?9?9*9?9*9*9?9*9,33.17,23.68,57.7,95547,0,0,396,0,0,0,0,0,0,0,219,0.88,8,8,8333.0,102,9,999999999,68,0.2190,0,88,0.160,0.0,0.0
2026,7,23,8,42,?9?9?9?9E0?9?9?9?9?9?9?9?9?9?9?9*9?9*9*9?9*9,33.15,23.77,58.1,95543,0,0,395,0,0,0,0,0,0,0,270,2.31,9,9,8333.0,2400,0,919999999,67,0.2190,0,88,0.160,0.0,0.0
2026,7,23,8,43,?9?9?9?9E0?9?9?9*9*9?9?9?9?9?9?9*9?9*9*9?9*9,33.17,23.83,58.2,95546,0,0,395,0,0,0,0,0,0,0,225,1.30,8,8,8333.0,86,9,999999999,67,0.2190,0,88,0.160,0.0,0.0
2026,7,23,8,44,?9?9?9?9E0?9?9?9*9*9?9?9?9?9?9?9*9?9*9*9?9*9,33.25,23.80,57.8,95541,0,0,384,0,0,0,0,0,0,0,225,1.16,8,8,8333.0,389,9,999999999,66,0.2190,0,88,0.160,0.0,0.0
2026,7,23,8,45,?9?9?9?9E0?9?9?9?9?9?9?9?9?9?9?9*9?9*9*9?9*9,33.30,23.87,57.9,95540,0,0,380,0,0,0,0,0,0,0,270,1.51,5,5,8333.0,379,9,999999999,66,0.2190,0,88,0.160,0.0,0.0
2026,7,23,8,46,?9?9?9?9E0?9?9?9*9*9?9?9?9?9?9?9*9?9*9*9?9*9,33.35,23.93,58.0,95540,305,1262,375,65,107,39,16488,19486,12003,4381,227,1.03,8,8,8333.0,156,9,999999999,68,0.2190,0,88,0.160,0.0,0.0
2026,7,23,8,47,?9?9?9?9E0?9?9?9*9*9?9?9?9?9?9?9*9?9*9*9?9*9,33.22,23.83,58.0,95540,609,1323,388,206,285,100,35474,34405,20761,5219,237,1.16,7,7,8333.0,281,9,999999999,69,0.2190,0,88,0.160,0.0,0.0
2026,7,23,8,48,?9?9?9?9E0?9?9?9?9?9?9?9?9?9?9?9*9?9*9*9?9*9,33.24,23.86,58.1,95540,875,1323,391,406,419,165,57022,43662,26349,4714,270,2.79,5,5,8333.0,472,9,999999999,71,0.2190,0,88,0.160,0.1,0.0
2026,7,23,8,49,?9?9?9?9E0?9?9?9*9*9?9?9?9?9?9?9*9?9*9*9?9*9,33.34,23.88,57.8,95540,1086,1323,392,606,563,181,72890,46601,27648,3947,251,1.21,7,7,8333.0,598,9,999999999,74,0.2190,0,88,0.160,0.1,0.0
2026,7,23,8,50,?9?9?9?9E0?9?9?9*9*9?9?9?9?9?9?9*9?9*9*9?9*9,33.39,23.76,57.2,95540,1226,1323,397,736,628,187,81275,43174,26688,3771,257,1.14,6,6,8333.0,702,9,999999999,77,0.2190,0,88,0.160,0.1,0.0
2026,7,23,8,51,?9?9?9?9E0?9?9?9?9?9?9?9?9?9?9?9*9?9*9*9?9*9,33.39,23.78,57.3,95539,1287,1323,403,838,688,182,88828,45331,23874,3371,270,1.12,4,4,8333.0,797,9,999999999,80,0.2190,0,88,0.160,0.1,0.0
2026,7,23,8,52,?9?9?9?9E0?9?9?9*9*9?9?9?9?9?9?9*9?9*9*9?9*9,33.38,23.80,57.4,95538,1265,1323,403,878,758,147,90452,57789,22004,2905,261,1.10,6,6,8333.0,901,9,999999999,76,0.2190,0,88,0.160,0.2,0.0
2026,7,23,8,53,?9?9?9?9E0?9?9?9*9*9?9?9?9?9?9?9*9?9*9*9?9*9,33.38,23.82,57.5,95537,1160,1323,414,799,712,144,82959,64796,22215,3391,260,1.07,5,5,8333.0,866,9,999999999,72,0.2190,0,88,0.160,0.2,0.0
2026,7,23,8,54,?9?9?9?9E0?9?9?9?9?9?9?9?9?9?9?9*9?9*9*9?9*9,33.37,23.84,57.6,95536,980,1323,398,691,675,145,69936,64346,20823,4620,270,1.05,4,4,8333.0,873,9,999999999,68,0.2190,0,88,0.160,0.1,0.0
2026,7,23,8,55,?9?9?9?9E0?9?9?9*9*9?9?9?9?9?9?9*9?9*9*9?9*9,33.36,23.86,57.7,95535,737,1323,398,542,609,141,50113,52761,19344,6861,256,1.03,5,5,8333.0,976,9,999999999,69,0.2190,0,88,0.160,0.0,0.0
2026,7,23,8,56,?9?9?9?9E0?9?9?9*9*9?9?9?9?9?9?9*9?9*9*9?9*9,33.36,23.88,57.8,95534,448,1323,398,323,421,122,27062,32390,15694,8546,252,1.00,6,6,8333.0,843,9,999999999,70,0.2190,0,88,0.160,0.0,0.0
2026,7,23,8,57,?9?9?9?9E0?9?9?9?9?9?9?9?9?9?9?9*9?9*9*9?9*9,33.35,23.90,57.8,95533,133,1323,394,127,232,68,9230,15990,7098,5532,230,0.98,6,6,8333.0,9000,9,999999999,71,0.2190,0,88,0.160,0.0,0.0
2026,7,23,8,58,?9?9?9?9E0?9?9?9*9*9?9?9?9?9?9?9*9?9*9*9?9*9,33.35,23.91,57.9,95532,0,549,390,24,0,16,1387,4415,1124,1178,240,0.96,6,6,8333.0,500,9,999999999,71,0.2190,0,88,0.160,0.0,0.0
2026,7,23,8,59,?9?9?9?9E0?9?9?9*9*9?9?9?9?9?9?9*9?9*9*9?9*9,33.34,23.93,58.0,95531,0,0,391,0,0,0,0,0,0,0,232,0.93,7,7,8333.0,299,9,999999999,72,0.2190,0,88,0.160,0.0,0.0
2026,7,23,9,0,?9?9?9?9E0?9?9?9?9?9?9?9?9?9?9?9*9?9*9*9?9*9,33.33,23.95,58.1,95530,0,0,392,0,0,0,0,0,0,0,225,0.91,3,3,8333.0,191,9,999999999,72,0.2190,0,88,0.160,0.0,0.0
2026,7,23,9,1,?9?9?9?9E0?9?9?9*9*9?9?9?9?9?9?9*9?9*9*9?9*9,33.33,23.97,58.2,95529,0,0,390,0,0,0,0,0,0,0,224,0.89,8,8,8333.0,171,9,999999999,72,0.2190,0,88,0.160,0.0,0.0
2026,7,23,9,2,?9?9?9?9E0?9?9?9*9*9?9?9?9?9?9?9*9?9*9*9?9*9,33.32,23.99,58.3,95528,0,0,375,0,0,0,0,0,0,0,226,0.86,8,8,8333.0,630,9,999999999,72,0.2190,0,88,0.160,0.0,0.0
2026,7,23,9,3,?9?9?9?9E0?9?9?9*9*9?9?9?9?9?9?9*9?9*9*9?9*9,33.32,24.01,58.4,95527,0,0,382,0,0,0,0,0,0,0,227,0.84,8,8,8333.0,178,9,999999999,72,0.2190,0,88,0.160,0.0,0.0
2026,7,23,9,4,?9?9?9?9E0?9?9?9*9*9?9?9?9?9?9?9*9?9*9*9?9*9,33.31,24.03,58.4,95526,0,0,398,0,0,0,0,0,0,0,217,0.82,8,8,8333.0,118,9,999999999,68,0.2190,0,88,0.160,0.0,0.0
2026,7,23,9,5,?9?9?9?9E0?9?9?9*9*9?9?9?9?9?9?9*9?9*9*9?9*9,33.30,24.05,58.5,95525,0,0,396,0,0,0,0,0,0,0,219,0.79,8,8,8333.0,102,9,999999999,68,0.2190,0,88,0.160,0.0,0.0
2026,7,23,9,6,?9?9?9?9E0?9?9?9?9?9?9?9?9?9?9?9*9?9*9*9?9*9,33.30,24.07,58.6,95524,0,0,395,0,0,0,0,0,0,0,270,0.77,9,9,8333.0,2400,0,919999999,67,0.2190,0,88,0.160,0.0,0.0
2026,7,23,9,7,?9?9?9?9E0?9?9?9*9*9?9?9?9?9?9?9*9?9*9*9?9*9,33.29,24.09,58.7,95523,0,0,395,0,0,0,0,0,0,0,225,0.75,8,8,8333.0,86,9,999999999,67,0.2190,0,88,0.160,0.0,0.0
2026,7,23,9,8,?9?9?9?9E0?9?9?9*9*9?9?9?9?9?9?9*9?9*9*9?9*9,33.29,24.11,58.8,95522,0,0,384,0,0,0,0,0,0,0,225,0.72,8,8,8333.0,389,9,999999999,66,0.2190,0,88,0.160,0.0,0.0
2026,7,23,9,9,?9?9?9?9E0?9?9?9?9?9?9?9?9?9?9?9*9?9*9*9?9*9,33.28,24.13,58.9,95521,0,0,380,0,0,0,0,0,0,0,270,0.70,5,5,8333.0,379,9,999999999,66,0.2190,0,88,0.160,0.0,0.0
2026,7,23,9,10,?9?9?9?9E0?9?9?9*9*9?9?9?9?9?9?9*9?9*9*9?9*9,33.27,24.14,59.0,95520,305,1262,375,65,107,39,16488,19486,12003,4381,227,0.68,8,8,8333.0,156,9,999999999,68,0.2190,0,88,0.160,0.0,0.0
2026,7,23,9,11,?9?9?9?9E0?9?9?9*9*9?9?9?9?9?9?9*9?9*9*9?9*9,33.27,24.16,59.1,95519,609,1323,388,206,285,100,35474,34405,20761,5219,237,0.65,7,7,8333.0,281,9,999999999,69,0.2190,0,88,0.160,0.0,0.0
2026,7,23,9,12,?9?9?9?9E0?9?9?9?9?9?9?9?9?9?9?9*9?9*9*9?9*9,33.26,24.18,59.1,95518,875,1323,391,406,419,165,57022,43662,26349,4714,270,0.63,5,5,8333.0,472,9,999999999,71,0.2190,0,88,0.160,0.1,0.0
2026,7,23,9,13,?9?9?9?9E0?9?9?9*9*9?9?9?9?9?9?9*9?9*9*9?9*9,33.26,24.20,59.2,95517,1086,1323,392,606,563,181,72890,46601,27648,3947,251,0.61,7,7,8333.0,598,9,999999999,74,0.2190,0,88,0.160,0.1,0.0
2026,7,23,9,14,?9?9?9?9E0?9?9?9*9*9?9?9?9?9?9?9*9?9*9*9?9*9,33.25,24.22,59.3,95516,1226,1323,397,736,628,187,81275,43174,26688,3771,257,0.58,6,6,8333.0,702,9,999999999,77,0.2190,0,88,0.160,0.1,0.0
2026,7,23,9,15,?9?9?9?9E0?9?9?9?9?9?9?9?9?9?9?9*9?9*9*9?9*9,33.24,24.24,59.4,95515,1287,1323,403,838,688,182,88828,45331,23874,3371,270,0.56,4,4,8333.0,797,9,999999999,80,0.2190,0,88,0.160,0.1,0.0
2026,7,23,9,16,?9?9?9?9E0?9?9?9*9*9?9?9?9?9?9?9*9?9*9*9?9*9,33.24,24.26,59.5,95514,1265,1323,403,878,758,147,90452,57789,22004,2905,261,0.54,6,6,8333.0,901,9,999999999,76,0.2190,0,88,0.160,0.2,0.0
2026,7,23,9,17,?9?9?9?9E0?9?9?9*9*9?9?9?9?9?9?9*9?9*9*9?9*9,33.23,24.28,59.6,95513,1160,1323,414,799,712,144,82959,64796,22215,3391,260,0.51,5,5,8333.0,866,9,999999999,72,0.2190,0,88,0.160,0.2,0.0
2026,7,23,9,18,?9?9?9?9E0?9?9?9?9?9?9?9?9?9?9?9*9?9*9*9?9*9,33.23,24.30,59.7,95512,980,1323,398,691,675,145,69936,64346,20823,4620,270,0.49,4,4,8333.0,873,9,999999999,68,0.2190,0,88,0.160,0.1,0.0
2026,7,23,9,19,?9?9?9?9E0?9?9?9*9*9?9?9?9?9?9?9*9?9*9*9?9*9,33.22,24.31,59.7,95511,737,1323,398,542,609,141,50113,52761,19344,6861,256,0.47,5,5,8333.0,976,9,999999999,69,0.2190,0,88,0.160,0.0,0.0
2026,7,23,9,20,?9?9?9?9E0?9?9?9*9*9?9?9?9?9?9?9*9?9*9*9?9*9,33.21,24.33,59.8,95510,448,1323,398,323,421,122,27062,32390,15694,8546,252,0.45,6,6,8333.0,843,9,999999999,70,0.2190,0,88,0.160,0.0,0.0
2026,7,23,9,21,?9?9?9?9E0?9?9?9?9?9?9?9?9?9?9?9*9?9*9*9?9*9,33.31,24.31,59.4,95510,133,1323,394,127,232,68,9230,15990,7098,5532,230,0.67,6,6,8333.0,9000,9,999999999,71,0.2190,0,88,0.160,0.0,0.0
2026,7,23,9,22,?9?9?9?9E0?9?9?9*9*9?9?9?9?9?9?9*9?9*9*9?9*9,33.43,24.15,58.5,95505,0,549,390,24,0,16,1387,4415,1124,1178,240,0.46,6,6,8333.0,500,9,999999999,71,0.2190,0,88,0.160,0.0,0.0
2026,7,23,9,23,?9?9?9?9E0?9?9?9*9*9?9?9?9?9?9?9*9?9*9*9?9*9,33.57,24.12,57.9,95497,0,0,391,0,0,0,0,0,0,0,232,1.68,7,7,8333.0,299,9,999999999,72,0.2190,0,88,0.160,0.0,0.0
2026,7,23,9,24,?9?9?9?9E0?9?9?9?9?9?9?9?9?9?9?9*9?9*9*9?9*9,33.66,24.07,57.5,95495,0,0,392,0,0,0,0,0,0,0,225,0.69,3,3,8333.0,191,9,999999999,72,0.2190,0,88,0.160,0.0,0.0
2026,7,23,9,25,?9?9?9?9E0?9?9?9*9*9?9?9?9?9?9?9*9?9*9*9?9*9,33.70,24.06,57.3,95496,0,0,390,0,0,0,0,0,0,0,224,0.87,8,8,8333.0,171,9,999999999,72,0.2190,0,88,0.160,0.0,0.0
2026,7,23,9,26,?9?9?9?9E0?9?9?9*9*9?9?9?9?9?9?9*9?9*9*9?9*9,33.69,24.07,57.3,95496,0,0,375,0,0,0,0,0,0,0,226,2.25,8,8,8333.0,630,9,999999999,72,0.2190,0,88,0.160,0.0,0.0
2026,7,23,9,27,?9?9?9?9E0?9?9?9*9*9?9?9?9?9?9?9*9?9*9*9?9*9,33.70,24.09,57.4,95495,0,0,382,0,0,0,0,0,0,0,227,0.96,8,8,8333.0,178,9,999999999,72,0.2190,0,88,0.160,0.0,0.0
2026,7,23,9,28,?9?9?9?9E0?9?9?9*9*9?9?9?9?9?9?9*9?9*9*9?9*9,33.70,24.24,57.9,95492,0,0,398,0,0,0,0,0,0,0,217,0.88,8,8,8333.0,118,9,999999999,68,0.2190,0,88,0.160,0.0,0.0
2026,7,23,9,29,?9?9?9?9E0?9?9?9*9*9?9?9?9?9?9?9*9?9*9*9?9*9,33.71,24.17,57.6,95501,0,0,396,0,0,0,0,0,0,0,219,0.90,8,8,8333.0,102,9,999999999,68,0.2190,0,88,0.160,0.0,0.0
2026,7,23,9,30,?9?9?9?9E0?9?9?9?9?9?9?9?9?9?9?9*9?9*9*9?9*9,33.77,24.18,57.5,95501,0,0,395,0,0,0,0,0,0,0,270,0.81,9,9,8333.0,2400,0,919999999,67,0.2190,0,88,0.160,0.0,0.0
2026,7,23,9,31,?9?9?9?9E0?9?9?9*9*9?9?9?9?9?9?9*9?9*9*9?9*9,33.77,24.16,57.4,95505,0,0,395,0,0,0,0,0,0,0,225,2.07,8,8,8333.0,86,9,999999999,67,0.2190,0,88,0.160,0.0,0.0
2026,7,23,9,32,?9?9?9?9E0?9?9?9*9*9?9?9?9?9?9?9*9?9*9*9?9*9,33.74,24.10,57.3,95500,0,0,384,0,0,0,0,0,0,0,225,1.17,8,8,8333.0,389,9,999999999,66,0.2190,0,88,0.160,0.0,0.0
2026,7,23,9,33,?9?9?9?9E0?9?9?9?9?9?9?9?9?9?9?9*9?9*9*9?9*9,33.71,24.10,57.4,95500,0,0,380,0,0,0,0,0,0,0,270,0.99,5,5,8333.0,379,9,999999999,66,0.2190,0,88,0.160,0.0,0.0
2026,7,23,9,34,?9?9?9?9E0?9?9?9*9*9?9?9?9?9?9?9*9?9*9*9?9*9,33.73,24.08,57.3,95500,305,1262,375,65,107,39,16488,19486,12003,4381,227,1.23,8,8,8333.0,156,9,999999999,68,0.2190,0,88,0.160,0.0,0.0
2026,7,23,9,35,?9?9?9?9E0?9?9?9*9*9?9?9?9?9?9?9*9?9*9*9?9*9,33.78,24.17,57.4,95499,609,1323,388,206,285,100,35474,34405,20761,5219,237,0.95,7,7,8333.0,281,9,999999999,69,0.2190,0,88,0.160,0.0,0.0
2026,7,23,9,36,?9?9?9?9E0?9?9?9?9?9?9?9?9?9?9?9*9?9*9*9?9*9,33.79,24.14,57.3,95500,875,1323,391,406,419,165,57022,43662,26349,4714,270,1.16,5,5,8333.0,472,9,999999999,71,0.2190,0,88,0.160,0.1,0.0
2026,7,23,9,37,?9?9?9?9E0?9?9?9*9*9?9?9?9?9?9?9*9?9*9*9?9*9,33.76,24.14,57.3,95498,1086,1323,392,606,563,181,72890,46601,27648,3947,251,1.31,7,7,8333.0,598,9,999999999,74,0.2190,0,88,0.160,0.1,0.0
2026,7,23,9,38,?9?9?9?9E0?9?9?9*9*9?9?9?9?9?9?9*9?9*9*9?9*9,33.79,24.07,57.0,95495,1226,1323,397,736,628,187,81275,43174,26688,3771,257,0.76,6,6,8333.0,702,9,999999999,77,0.2190,0,88,0.160,0.1,0.0
2026,7,23,9,39,?9?9?9?9E0?9?9?9?9?9?9?9?9?9?9?9*9?9*9*9?9*9,33.84,24.06,56.9,95492,1287,1323,403,838,688,182,88828,45331,23874,3371,270,0.78,4,4,8333.0,797,9,999999999,80,0.2190,0,88,0.160,0.1,0.0
2026,7,23,9,40,?9?9?9?9E0?9?9?9*9*9?9?9?9?9?9?9*9?9*9*9?9*9,33.85,24.11,57.0,95485,1265,1323,403,878,758,147,90452,57789,22004,2905,261,0.64,6,6,8333.0,901,9,999999999,76,0.2190,0,88,0.160,0.2,0.0
2026,7,23,9,41,?9?9?9?9E0?9?9?9*9*9?9?9?9?9?9?9*9?9*9*9?9*9,33.82,23.96,56.6,95485,1160,1323,414,799,712,144,82959,64796,22215,3391,260,1.14,5,5,8333.0,866,9,999999999,72,0.2190,0,88,0.160,0.2,0.0
2026,7,23,9,42,?9?9?9?9E0?9?9?9?9?9?9?9?9?9?9?9*9?9*9*9?9*9,33.77,24.00,56.8,95490,980,1323,398,691,675,145,69936,64346,20823,4620,270,1.82,4,4,8333.0,873,9,999999999,68,0.2190,0,88,0.160,0.1,0.0
2026,7,23,9,43,?9?9?9?9E0?9?9?9*9*9?9?9?9?9?9?9*9?9*9*9?9*9,33.72,23.97,56.9,95488,737,1323,398,542,609,141,50113,52761,19344,6861,256,1.51,5,5,8333.0,976,9,999999999,69,0.2190,0,88,0.160,0.0,0.0
2026,7,23,9,44,?9?9?9?9E0?9?9?9*9*9?9?9?9?9?9?9*9?9*9*9?9*9,33.71,23.94,56.9,95481,448,1323,398,323,421,122,27062,32390,15694,8546,252,1.02,6,6,8333.0,843,9,999999999,70,0.2190,0,88,0.160,0.0,0.0
2026,7,23,9,45,?9?9?9?9E0?9?9?9?9?9?9?9?9?9?9?9*9?9*9*9?9*9,33.71,23.99,57.0,95486,133,1323,394,127,232,68,9230,15990,7098,5532,230,0.86,6,6,8333.0,9000,9,999999999,71,0.2190,0,88,0.160,0.0,0.0
2026,7,23,9,46,?9?9?9?9E0?9?9?9*9*9?9?9?9?9?9?9*9?9*9*9?9*9,33.78,24.03,56.9,95485,0,549,390,24,0,16,1387,4415,1124,1178,240,1.01,6,6,8333.0,500,9,999999999,71,0.2190,0,88,0.160,0.0,0.0
2026,7,23,9,47,?9?9?9?9E0?9?9?9*9*9?9?9?9?9?9?9*9?9*9*9?9*9,33.78,23.98,56.7,95484,0,0,391,0,0,0,0,0,0,0,232,0.78,7,7,8333.0,299,9,999999999,72,0.2190,0,88,0.160,0.0,0.0
2026,7,23,9,48,?9?9?9?9E0?9?9?9?9?9?9?9?9?9?9?9*9?9*9*9?9*9,33.76,24.02,57.0,95483,0,0,392,0,0,0,0,0,0,0,225,0.83,3,3,8333.0,191,9,999999999,72,0.2190,0,88,0.160,0.0,0.0
2026,7,23,9,49,?9?9?9?9E0?9?9?9*9*9?9?9?9?9?9?9*9?9*9*9?9*9,33.74,23.99,56.9,95488,0,0,390,0,0,0,0,0,0,0,224,0.88,8,8,8333.0,171,9,999999999,72,0.2190,0,88,0.160,0.0,0.0
2026,7,23,9,50,?9?9?9?9E0?9?9?9*9*9?9?9?9?9?9?9*9?9*9*9?9*9,33.81,24.06,56.9,95492,0,0,375,0,0,0,0,0,0,0,226,1.00,8,8,8333.0,630,9,999999999,72,0.2190,0,88,0.160,0.0,0.0
2026,7,23,9,51,?9?9?9?9E0?9?9?9*9*9?9?9?9?9?9?9*9?9*9*9?9*9,33.80,23.98,56.7,95489,0,0,382,0,0,0,0,0,0,0,227,1.94,8,8,8333.0,178,9,999999999,72,0.2190,0,88,0.160,0.0,0.0
2026,7,23,9,52,?9?9?9?9E0?9?9?9*9*9?9?9?9?9?9?9*9?9*9*9?9*9,33.78,23.97,56.7,95489,0,0,398,0,0,0,0,0,0,0,217,0.87,8,8,8333.0,118,9,999999999,68,0.2190,0,88,0.160,0.0,0.0
2026,7,23,9,53,?9?9?9?9E0?9?9?9*9*9?9?9?9?9?9?9*9?9*9*9?9*9,33.76,23.98,56.8,95479,0,0,396,0,0,0,0,0,0,0,219,0.87,8,8,8333.0,102,9,999999999,68,0.2190,0,88,0.160,0.0,0.0
2026,7,23,9,54,?9?9?9?9E0?9?9?9?9?9?9?9?9?9?9?9*9?9*9*9?9*9,33.77,23.99,56.8,95484,0,0,395,0,0,0,0,0,0,0,270,0.69,9,9,8333.0,2400,0,919999999,67,0.2190,0,88,0.160,0.0,0.0
2026,7,23,9,55,?9?9?9?9E0?9?9?9*9*9?9?9?9?9?9?9*9?9*9*9?9*9,33.76,23.91,56.6,95488,0,0,395,0,0,0,0,0,0,0,225,1.09,8,8,8333.0,86,9,999999999,67,0.2190,0,88,0.160,0.0,0.0
2026,7,23,9,56,?9?9?9?9E0?9?9?9*9*9?9?9?9?9?9?9*9?9*9*9?9*9,33.78,23.99,56.8,95479,0,0,384,0,0,0,0,0,0,0,225,0.88,8,8,8333.0,389,9,999999999,66,0.2190,0,88,0.160,0.0,0.0
2026,7,23,9,57,?9?9?9?9E0?9?9?9?9?9?9?9?9?9?9?9*9?9*9*9?9*9,33.79,24.03,56.9,95479,0,0,380,0,0,0,0,0,0,0,270,0.75,5,5,8333.0,379,9,999999999,66,0.2190,0,88,0.160,0.0,0.0
2026,7,23,9,58,?9?9?9?9E0?9?9?9*9*9?9?9?9?9?9?9*9?9*9*9?9*9,33.80,24.15,57.3,95480,305,1262,375,65,107,39,16488,19486,12003,4381,227,1.17,8,8,8333.0,156,9,999999999,68,0.2190,0,88,0.160,0.0,0.0
2026,7,23,9,59,?9?9?9?9E0?9?9?9*9*9?9?9?9?9?9?9*9?9*9*9?9*9,33.81,24.24,57.6,95479,609,1323,388,206,285,100,35474,34405,20761,5219,237,0.81,7,7,8333.0,281,9,999999999,69,0.2190,0,88,0.160,0.0,0.0
2026,7,23,10,0,?9?9?9?9E0?9?9?9?9?9?9?9?9?9?9?9*9?9*9*9?9*9,33.77,24.17,57.4,95479,875,1323,391,406,419,165,57022,43662,26349,4714,270,0.65,5,5,8333.0,472,9,999999999,71,0.2190,0,88,0.160,0.1,0.0
2026,7,23,10,1,?9?9?9?9E0?9?9?9*9*9?9?9?9?9?9?9*9?9*9*9?9*9,33.78,24.04,57.0,95482,1086,1323,392,606,563,181,72890,46601,27648,3947,251,0.93,7,7,8333.0,598,9,999999999,74,0.2190,0,88,0.160,0.1,0.0
2026,7,23,10,2,?9?9?9?9E0?9?9?9*9*9?9?9?9?9?9?9*9?9*9*9?9*9,33.75,23.96,56.8,95479,1226,1323,397,736,628,187,81275,43174,26688,3771,257,0.51,6,6,8333.0,702,9,999999999,77,0.2190,0,88,0.160,0.1,0.0
2026,7,23,10,3,?9?9?9?9E0?9?9?9?9?9?9?9?9?9?9?9*9?9*9*9?9*9,33.76,24.03,57.0,95479,1287,1323,403,838,688,182,88828,45331,23874,3371,270,1.42,4,4,8333.0,797,9,999999999,80,0.2190,0,88,0.160,0.1,0.0
2026,7,23,10,4,?9?9?9?9E0?9?9?9*9*9?9?9?9?9?9?9*9?9*9*9?9*9,33.76,24.12,57.3,95478,1265,1323,403,878,758,147,90452,57789,22004,2905,261,0.74,6,6,8333.0,901,9,999999999,76,0.2190,0,88,0.160,0.2,0.0
2026,7,23,10,5,?9?9?9?9E0?9?9?9*9*9?9?9?9?9?9?9*9?9*9*9?9*9,33.81,24.06,57.0,95480,1160,1323,414,799,712,144,82959,64796,22215,3391,260,0.74,5,5,8333.0,866,9,999999999,72,0.2190,0,88,0.160,0.2,0.0
2026,7,23,10,6,?9?9?9?9E0?9?9?9?9?9?9?9?9?9?9?9*9?9*9*9?9*9,33.80,24.03,56.9,95481,980,1323,398,691,675,145,69936,64346,20823,4620,270,0.67,4,4,8333.0,873,9,999999999,68,0.2190,0,88,0.160,0.1,0.0
2026,7,23,10,7,?9?9?9?9E0?9?9?9*9*9?9?9?9?9?9?9*9?9*9*9?9*9,33.80,24.05,56.9,95480,737,1323,398,542,609,141,50113,52761,19344,6861,256,0.81,5,5,8333.0,976,9,999999999,69,0.2190,0,88,0.160,0.0,0.0
2026,7,23,10,8,?9?9?9?9E0?9?9?9*9*9?9?9?9?9?9?9*9?9*9*9?9*9,33.83,24.08,56.9,95478,448,1323,398,323,421,122,27062,32390,15694,8546,252,1.29,6,6,8333.0,843,9,999999999,70,0.2190,0,88,0.160,0.0,0.0
2026,7,23,10,9,?9?9?9?9E0?9?9?9?9?9?9?9?9?9?9?9*9?9*9*9?9*9,33.87,24.21,57.3,95477,133,1323,394,127,232,68,9230,15990,7098,5532,230,1.91,6,6,8333.0,9000,9,999999999,71,0.2190,0,88,0.160,0.0,0.0
2026,7,23,10,10,?9?9?9?9E0?9?9?9*9*9?9?9?9?9?9?9*9?9*9*9?9*9,33.88,24.31,57.5,95475,0,549,390,24,0,16,1387,4415,1124,1178,240,1.27,6,6,8333.0,500,9,999999999,71,0.2190,0,88,0.160,0.0,0.0
2026,7,23,10,11,?9?9?9?9E0?9?9?9*9*9?9?9?9?9?9?9*9?9*9*9?9*9,33.91,24.32,57.5,95474,0,0,391,0,0,0,0,0,0,0,232,1.14,7,7,8333.0,299,9,999999999,72,0.2190,0,88,0.160,0.0,0.0
2026,7,23,10,12,?9?9?9?9E0?9?9?9?9?9?9?9?9?9?9?9*9?9*9*9?9*9,33.93,24.31,57.4,95472,0,0,392,0,0,0,0,0,0,0,225,1.07,3,3,8333.0,191,9,999999999,72,0.2190,0,88,0.160,0.0,0.0
2026,7,23,10,13,?9?9?9?9E0?9?9?9*9*9?9?9?9?9?9?9*9?9*9*9?9*9,34.02,24.42,57.5,95470,0,0,390,0,0,0,0,0,0,0,224,1.30,8,8,8333.0,171,9,999999999,72,0.2190,0,88,0.160,0.0,0.0
2026,7,23,10,14,?9?9?9?9E0?9?9?9*9*9?9?9?9?9?9?9*9?9*9*9?9*9,33.98,24.30,57.2,95467,0,0,375,0,0,0,0,0,0,0,226,0.91,8,8,8333.0,630,9,999999999,72,0.2190,0,88,0.160,0.0,0.0
2026,7,23,10,15,?9?9?9?9E0?9?9?9*9*9?9?9?9?9?9?9*9?9*9*9?9*9,33.88,24.23,57.3,95460,0,0,382,0,0,0,0,0,0,0,227,0.87,8,8,8333.0,178,9,999999999,72,0.2190,0,88,0.160,0.0,0.0
2026,7,23,10,16,?9?9?9?9E0?9?9?9*9*9?9?9?9?9?9?9*9?9*9*9?9*9,33.80,24.26,57.6,95460,0,0,398,0,0,0,0,0,0,0,217,0.99,8,8,8333.0,118,9,999999999,68,0.2190,0,88,0.160,0.0,0.0
2026,7,23,10,17,?9?9?9?9E0?9?9?9*9*9?9?9?9?9?9?9*9?9*9*9?9*9,33.73,24.19,57.6,95457,0,0,396,0,0,0,0,0,0,0,219,0.42,8,8,8333.0,102,9,999999999,68,0.2190,0,88,0.160,0.0,0.0
2026,7,23,10,18,?9?9?9?9E0?9?9?9?9?9?9?9?9?9?9?9*9?9*9*9?9*9,33.69,24.19,57.8,95459,0,0,395,0,0,0,0,0,0,0,270,0.29,9,9,8333.0,2400,0,919999999,67,0.2190,0,88,0.160,0.0,0.0
2026,7,23,10,19,?9?9?9?9E0?9?9?9*9*9?9?9?9?9?9?9*9?9*9*9?9*9,33.63,24.20,58.0,95464,0,0,395,0,0,0,0,0,0,0,225,0.68,8,8,8333.0,86,9,999999999,67,0.2190,0,88,0.160,0.0,0.0
2026,7,23,10,20,?9?9?9?9E0?9?9?9*9*9?9?9?9?9?9?9*9?9*9*9?9*9,33.68,24.32,58.3,95460,0,0,384,0,0,0,0,0,0,0,225,1.04,8,8,8333.0,389,9,999999999,66,0.2190,0,88,0.160,0.0,0.0
2026,7,23,10,21,?9?9?9?9E0?9?9?9?9?9?9?9?9?9?9?9*9?9*9*9?9*9,33.73,24.39,58.4,95460,0,0,380,0,0,0,0,0,0,0,270,0.47,5,5,8333.0,379,9,999999999,66,0.2190,0,88,0.160,0.0,0.0
2026,7,23,10,22,?9?9?9?9E0?9?9?9*9*9?9?9?9?9?9?9*9?9*9*9?9*9,33.75,24.34,58.1,95458,305,1262,375,65,107,39,16488,19486,12003,4381,227,1.20,8,8,8333.0,156,9,999999999,68,0.2190,0,88,0.160,0.0,0.0
2026,7,23,10,23,?9?9?9?9E0?9?9?9*9*9?9?9?9?9?9?9*9?9*9*9?9*9,33.82,24.38,58.0,95455,609,1323,388,206,285,100,35474,34405,20761,5219,237,0.70,7,7,8333.0,281,9,999999999,69,0.2190,0,88,0.160,0.0,0.0
2026,7,23,10,24,?9?9?9?9E0?9?9?9?9?9?9?9?9?9?9?9*9?9*9*9?9*9,33.84,24.33,57.8,95460,875,1323,391,406,419,165,57022,43662,26349,4714,270,1.09,5,5,8333.0,472,9,999999999,71,0.2190,0,88,0.160,0.1,0.0
2026,7,23,10,25,?9?9?9?9E0?9?9?9*9*9?9?9?9?9?9?9*9?9*9*9?9*9,33.96,24.46,57.8,95455,1086,1323,392,606,563,181,72890,46601,27648,3947,251,1.58,7,7,8333.0,598,9,999999999,74,0.2190,0,88,0.160,0.1,0.0
2026,7,23,10,26,?9?9?9?9E0?9?9?9*9*9?9?9?9?9?9?9*9?9*9*9?9*9,34.02,24.55,58.0,95460,1226,1323,397,736,628,187,81275,43174,26688,3771,257,1.04,6,6,8333.0,702,9,999999999,77,0.2190,0,88,0.160,0.1,0.0
2026,7,23,10,27,?9?9?9?9E0?9?9?9?9?9?9?9?9?9?9?9*9?9*9*9?9*9,34.06,24.47,57.6,95460,1287,1323,403,838,688,182,88828,45331,23874,3371,270,1.97,4,4,8333.0,797,9,999999999,80,0.2190,0,88,0.160,0.1,0.0
2026,7,23,10,28,?9?9?9?9E0?9?9?9*9*9?9?9?9?9?9?9*9?9*9*9?9*9,34.06,24.46,57.5,95460,1265,1323,403,878,758,147,90452,57789,22004,2905,261,0.83,6,6,8333.0,901,9,999999999,76,0.2190,0,88,0.160,0.2,0.0
2026,7,23,10,29,?9?9?9?9E0?9?9?9*9*9?9?9?9?9?9?9*9?9*9*9?9*9,34.08,24.37,57.2,95462,1160,1323,414,799,712,144,82959,64796,22215,3391,260,1.16,5,5,8333.0,866,9,999999999,72,0.2190,0,88,0.160,0.2,0.0
2026,7,23,10,30,?9?9?9?9E0?9?9?9?9?9?9?9?9?9?9?9*9?9*9*9?9*9,34.09,24.50,57.5,95458,980,1323,398,691,675,145,69936,64346,20823,4620,270,1.75,4,4,8333.0,873,9,999999999,68,0.2190,0,88,0.160,0.1,0.0
2026,7,23,10,31,?9?9?9?9E0?9?9?9*9*9?9?9?9?9?9?9*9?9*9*9?9*9,34.09,24.52,57.6,95460,737,1323,398,542,609,141,50113,52761,19344,6861,256,1.14,5,5,8333.0,976,9,999999999,69,0.2190,0,88,0.160,0.0,0.0
2026,7,23,10,32,?9?9?9?9E0?9?9?9*9*9?9?9?9?9?9?9*9?9*9*9?9*9,34.09,24.44,57.4,95465,448,1323,398,323,421,122,27062,32390,15694,8546,252,1.48,6,6,8333.0,843,9,999999999,70,0.2190,0,88,0.160,0.0,0.0
2026,7,23,10,33,?9?9?9?9E0?9?9?9?9?9?9?9?9?9?9?9*9?9*9*9?9*9,34.10,24.44,57.3,95461,133,1323,394,127,232,68,9230,15990,7098,5532,230,0.77,6,6,8333.0,9000,9,999999999,71,0.2190,0,88,0.160,0.0,0.0
2026,7,23,10,34,?9?9?9?9E0?9?9?9*9*9?9?9?9?9?9?9*9?9*9*9?9*9,34.00,24.37,57.4,95461,0,549,390,24,0,16,1387,4415,1124,1178,240,2.18,6,6,8333.0,500,9,999999999,71,0.2190,0,88,0.160,0.0,0.0
2026,7,23,10,35,?9?9?9?9E0?9?9?9*9*9?9?9?9?9?9?9*9?9*9*9?9*9,33.98,24.52,58.0,95459,0,0,391,0,0,0,0,0,0,0,232,1.32,7,7,8333.0,299,9,999999999,72,0.2190,0,88,0.160,0.0,0.0
2026,7,23,10,36,?9?9?9?9E0?9?9?9?9?9?9?9?9?9?9?9*9?9*9*9?9*9,34.02,24.57,58.0,95460,0,0,392,0,0,0,0,0,0,0,225,1.21,3,3,8333.0,191,9,999999999,72,0.2190,0,88,0.160,0.0,0.0
2026,7,23,10,37,?9?9?9?9E0?9?9?9*9*9?9?9?9?9?9?9*9?9*9*9?9*9,34.01,24.53,57.9,95460,0,0,390,0,0,0,0,0,0,0,224,1.22,8,8,8333.0,171,9,999999999,72,0.2190,0,88,0.160,0.0,0.0
2026,7,23,10,38,?9?9?9?9E0?9?9?9*9*9?9?9?9?9?9?9*9?9*9*9?9*9,34.07,24.49,57.6,95458,0,0,375,0,0,0,0,0,0,0,226,1.78,8,8,8333.0,630,9,999999999,72,0.2190,0,88,0.160,0.0,0.0
2026,7,23,10,39,?9?9?9?9E0?9?9?9*9*9?9?9?9?9?9?9*9?9*9*9?9*9,34.14,24.42,57.1,95460,0,0,382,0,0,0,0,0,0,0,227,1.21,8,8,8333.0,178,9,999999999,72,0.2190,0,88,0.160,0.0,0.0
2026,7,23,10,40,?9?9?9?9E0?9?9?9*9*9?9?9?9?9?9?9*9?9*9*9?9*9,34.20,24.43,57.0,95460,0,0,398,0,0,0,0,0,0,0,217,1.25,8,8,8333.0,118,9,999999999,68,0.2190,0,88,0.160,0.0,0.0
2026,7,23,10,41,?9?9?9?9E0?9?9?9*9*9?9?9?9?9?9?9*9?9*9*9?9*9,34.22,24.52,57.2,95461,0,0,396,0,0,0,0,0,0,0,219,1.49,8,8,8333.0,102,9,999999999,68,0.2190,0,88,0.160,0.0,0.0
2026,7,23,10,42,?9?9?9?9E0?9?9?9?9?9?9?9?9?9?9?9*9?9*9*9?9*9,34.20,24.51,57.3,95460,0,0,395,0,0,0,0,0,0,0,270,1.38,9,9,8333.0,2400,0,919999999,67,0.2190,0,88,0.160,0.0,0.0
2026,7,23,10,43,?9?9?9?9E0?9?9?9*9*9?9?9?9?9?9?9*9?9*9*9?9*9,34.16,24.52,57.4,95460,0,0,395,0,0,0,0,0,0,0,225,1.48,8,8,8333.0,86,9,999999999,67,0.2190,0,88,0.160,0.0,0.0
