LOCATION,Kandy,CP,LKA,SRC-TMYx,434440,7.33440,80.62660,5.5,477.0
DESIGN CONDITIONS,1,2025 ASHRAE Handbook -- Fundamentals - Chapter 14 Climatic Design Information,Heating,1,17.5,18.7,14.9,11.2,23.4,16.1,12.1,22.8,3.8,26.3,3.3,26.5,0.1,50,0.193,Cooling,4,8.8,32.2,23.5,31.5,23.7,30.8,23.8,25.5,29.8,25.1,29.3,24.8,28.8,1.3,140,24.2,20.3,27.4,23.9,19.9,27.1,23.6,19.6,26.8,81.1,30.1,79.5,29.5,78.3,29.2,27.5,Extremes,4.1,3.3,2.7,14.9,35.0,1.0,1.9,14.2,36.3,13.6,37.4,13.0,38.5,12.3,39.8,14.4,26.6,0.9,0.4,13.8,26.8,13.3,27.1,12.8,27.3,12.1,27.6
TYPICAL/EXTREME PERIODS,3,No Dry Season - Week Near Average Annual,Typical,7/23,7/29,No Dry Season - Week Near Annual Max,Extreme,4/23,4/29,No Dry Season - Week Near Annual Min,Extreme,1/15,1/21
GROUND TEMPERATURES,3,.5,,,,24.15,23.87,23.79,23.85,24.24,24.67,25.08,25.38,25.46,25.32,24.99,24.57,2,,,,24.41,24.14,24.01,24.01,24.21,24.51,24.83,25.10,25.24,25.22,25.03,24.74,4,,,,24.58,24.37,24.24,24.20,24.28,24.45,24.66,24.87,25.02,25.05,24.97,24.80
HOLIDAYS/DAYLIGHT SAVINGS,No,0,0,0
COMMENTS 1,"NCEI ISD/ERA5 - #years=[15] Period of Record=2011-2025; Jan=2019; Feb=2018; Mar=2025; Apr=2021; May=2015; Jun=2016; Jul=2016; Aug=2020; Sep=2014; Oct=2024; Nov=2012; Dec=2020"
COMMENTS 2,"Downloaded from Climate.Onebuilding.org -- Ground temps represent undisturbed earth temperatures - calculated from this weather data."
DATA PERIODS,1,1,Data,Sunday,1/ 1,12/31
2026,7,31,4,30,?9?9?9?9E0?9?9?9*9*9?9?9?9?9?9?9*9?9*9*9?9*9,28.6,24.0,76.2,95542,0,0,393,0,0,0,0,0,0,0,222,0.4,10,10,8333.0,75,9,999999999,79,0.2170,0,88,0.160,0.0,0.0
2026,7,31,4,31,?9?9?9?9E0?9?9?9*9*9?9?9?9?9?9?9*9?9*9*9?9*9,28.6,23.8,75.4,95540,0,0,402,0,0,0,0,0,0,0,219,0.3,10,10,8333.0,77,9,999999999,81,0.2170,0,88,0.160,0.0,0.0
2026,7,31,4,32,?9?9?9?9E0?9?9?9?9?9?9?9?9?9?9?9*9?9*9*9?9*9,28.7,23.9,75.5,95540,0,0,392,0,0,0,0,0,0,0,222,0.4,10,10,8333.0,450,0,019999999,83,0.2170,0,88,0.160,0.0,0.0
2026,7,31,4,33,?9?9?9?9E0?9?9?9*9*9?9?9?9?9?9?9*9?9*9*9?9*9,28.7,24.0,75.8,95541,0,0,393,0,0,0,0,0,0,0,208,0.4,10,10,8333.0,121,9,999999999,81,0.2170,0,88,0.160,0.0,0.0
2026,7,31,4,34,?9?9?9?9E0?9?9?9*9*9?9?9?9?9?9?9*9?9*9*9?9*9,28.8,24.1,75.7,95543,0,0,396,0,0,0,0,0,0,0,208,0.4,10,10,8333.0,148,9,999999999,79,0.2170,0,88,0.160,0.0,0.0
2026,7,31,4,35,?9?9?9?9E0?9?9?9?9?9?9?9?9?9?9?9*9?9*9*9?9*9,28.9,24.1,75.3,95546,0,0,389,0,0,0,0,0,0,0,215,0.3,8,8,8333.0,3600,9,999999999,77,0.2170,0,88,0.160,0.0,0.0
2026,7,31,4,36,?9?9?9?9E0?9?9?9*9*9?9?9?9?9?9?9*9?9*9*9?9*9,28.9,23.8,74.0,95542,304,1246,393,73,134,40,19136,25050,12034,4369,223,0.4,10,10,8333.0,623,9,999999999,80,0.2170,0,88,0.160,0.0,0.0
2026,7,31,4,37,?9?9?9?9E0?9?9?9*9*9?9?9?9?9?9?9*9?9*9*9?9*9,29.0,23.9,74.1,95538,610,1325,391,239,375,97,39603,47923,16254,4253,230,0.4,9,9,8333.0,837,9,999999999,83,0.2170,0,88,0.160,0.0,0.0
2026,7,31,4,38,?9?9?9?9E0?9?9?9?9?9?9?9?9?9?9?9*9?9*9*9?9*9,29.0,23.8,73.4,95538,878,1325,396,434,558,113,56027,54960,19880,3492,270,0.4,8,8,8333.0,3000,9,999999999,85,0.2170,0,88,0.160,0.0,0.0
2026,7,31,4,39,?9?9?9?9E0?9?9?9*9*9?9?9?9?9?9?9*9?9*9*9?9*9,29.1,23.8,73.3,95541,1090,1325,401,552,547,152,66421,42280,26620,4080,231,0.4,8,8,8333.0,710,9,999999999,83,0.2170,0,88,0.160,0.1,0.0
2026,7,31,4,40,?9?9?9?9E0?9?9?9*9*9?9?9?9?9?9?9*9?9*9*9?9*9,29.1,24.0,74.1,95541,1232,1325,416,671,519,212,72104,29552,27766,4726,235,0.4,7,7,8333.0,575,9,999999999,81,0.2170,0,88,0.160,0.1,0.0
2026,7,31,4,41,?9?9?9?9E0?9?9?9*9*9?9?9?9?9?9?9*9?9*9*9?9*9,29.2,24.1,74.4,95541,1294,1325,420,717,552,192,71407,26924,26181,4619,237,0.4,7,7,8333.0,643,9,999999999,78,0.2170,0,88,0.160,0.1,0.0
2026,7,31,4,42,?9?9?9?9E0?9?9?9*9*9?9?9?9?9?9?9*9?9*9*9?9*9,29.2,23.9,73.6,95546,1271,1325,420,670,491,194,67050,28965,28649,4773,234,0.3,6,6,8333.0,622,9,999999999,76,0.2170,0,88,0.160,0.1,0.0
2026,7,31,4,43,?9?9?9?9E0?9?9?9*9*9?9?9?9?9?9?9*9?9*9*9?9*9,29.2,23.9,73.3,95542,1166,1325,425,591,398,222,58202,28355,30006,5030,248,0.3,5,5,8333.0,436,9,999999999,74,0.2170,0,88,0.160,0.8,0.0
2026,7,31,4,44,?9?9?9?9E0?9?9?9?9?9?9?9?9?9?9?9*9?9*9*9?9*9,29.2,23.9,73.1,95540,985,1325,432,456,325,191,43870,23043,26195,5200,230,0.3,8,8,8333.0,600,9,999999999,72,0.2170,0,88,0.160,3.2,0.0
2026,7,31,4,45,?9?9?9?9E0?9?9?9*9*9?9?9?9?9?9?9*9?9*9*9?9*9,29.2,23.8,73.1,95540,740,1325,422,296,222,143,27094,14259,19457,5749,241,0.3,6,6,8333.0,582,9,999999999,75,0.2170,0,88,0.160,2.3,0.0
2026,7,31,4,46,?9?9?9?9E0?9?9?9*9*9?9?9?9?9?9?9*9?9*9*9?9*9,29.2,24.0,73.6,95535,449,1325,426,144,114,91,13184,7501,11774,5592,235,0.3,7,7,8333.0,498,9,999999999,78,0.2170,0,88,0.160,0.6,0.0
2026,7,31,4,47,?9?9?9?9E0?9?9?9?9?9?9?9?9?9?9?9*9?9*9*9?9*9,29.2,24.0,73.6,95544,131,1325,414,58,63,40,4637,3431,4570,3240,232,0.3,9,9,8333.0,2400,0,919999999,82,0.2170,0,88,0.160,0.2,0.0
2026,7,31,4,48,?9?9?9?9E0?9?9?9*9*9?9?9?9?9?9?9*9?9*9*9?9*9,29.3,23.9,73.0,95546,0,539,412,10,0,8,670,775,670,680,233,0.3,9,9,8333.0,355,9,999999999,82,0.2170,0,88,0.160,0.2,0.0
2026,7,31,4,49,?9?9?9?9E0?9?9?9*9*9?9?9?9?9?9?9*9?9*9*9?9*9,29.4,24.0,73.0,95540,0,0,413,0,0,0,0,0,0,0,229,0.3,9,9,8333.0,200,9,999999999,83,0.2170,0,88,0.160,0.1,0.0
2026,7,31,4,50,?9?9?9?9E0?9?9?9?9?9?9?9?9?9?9?9*9?9*9*9?9*9,29.4,24.0,72.8,95541,0,0,407,0,0,0,0,0,0,0,221,0.3,8,8,8333.0,3000,0,919999999,83,0.2170,0,88,0.160,0.0,0.0
2026,7,31,4,51,?9?9?9?9E0?9?9?9*9*9?9?9?9?9?9?9*9?9*9*9?9*9,29.4,23.8,72.2,95539,0,0,404,0,0,0,0,0,0,0,214,0.3,10,10,8333.0,354,9,999999999,83,0.2170,0,88,0.160,0.0,0.0
2026,7,31,4,52,?9?9?9?9E0?9?9?9*9*9?9?9?9?9?9?9*9?9*9*9?9*9,29.3,23.9,72.7,95544,0,0,407,0,0,0,0,0,0,0,215,0.4,10,10,8333.0,218,9,999999999,84,0.2170,0,88,0.160,0.0,0.0
2026,7,31,4,53,?9?9?9?9E0?9?9?9?9?9?9?9?9?9?9?9*9?9*9*9?9*9,29.4,24.1,73.2,95538,0,0,405,0,0,0,0,0,0,0,220,0.3,4,4,8333.0,224,0,919999999,84,0.2170,0,88,0.160,0.0,0.0
2026,7,31,4,54,?9?9?9?9E0?9?9?9*9*9?9?9?9?9?9?9*9?9*9*9?9*9,29.4,24.1,73.0,95544,0,0,393,0,0,0,0,0,0,0,222,0.3,10,10,8333.0,75,9,999999999,79,0.2170,0,88,0.160,0.0,0.0
2026,7,31,4,55,?9?9?9?9E0?9?9?9*9*9?9?9?9?9?9?9*9?9*9*9?9*9,29.5,24.1,72.6,95550,0,0,402,0,0,0,0,0,0,0,219,0.2,10,10,8333.0,77,9,999999999,81,0.2170,0,88,0.160,0.0,0.0
