LOCATION,Kandy,CP,LKA,SRC-TMYx,434440,7.33440,80.62660,5.5,477.0
DESIGN CONDITIONS,1,2025 ASHRAE Handbook -- Fundamentals - Chapter 14 Climatic Design Information,Heating,1,17.5,18.7,14.9,11.2,23.4,16.1,12.1,22.8,3.8,26.3,3.3,26.5,0.1,50,0.193,Cooling,4,8.8,32.2,23.5,31.5,23.7,30.8,23.8,25.5,29.8,25.1,29.3,24.8,28.8,1.3,140,24.2,20.3,27.4,23.9,19.9,27.1,23.6,19.6,26.8,81.1,30.1,79.5,29.5,78.3,29.2,27.5,Extremes,4.1,3.3,2.7,14.9,35.0,1.0,1.9,14.2,36.3,13.6,37.4,13.0,38.5,12.3,39.8,14.4,26.6,0.9,0.4,13.8,26.8,13.3,27.1,12.8,27.3,12.1,27.6
TYPICAL/EXTREME PERIODS,3,No Dry Season - Week Near Average Annual,Typical,7/23,7/29,No Dry Season - Week Near Annual Max,Extreme,4/23,4/29,No Dry Season - Week Near Annual Min,Extreme,1/15,1/21
GROUND TEMPERATURES,3,.5,,,,24.15,23.87,23.79,23.85,24.24,24.67,25.08,25.38,25.46,25.32,24.99,24.57,2,,,,24.41,24.14,24.01,24.01,24.21,24.51,24.83,25.10,25.24,25.22,25.03,24.74,4,,,,24.58,24.37,24.24,24.20,24.28,24.45,24.66,24.87,25.02,25.05,24.97,24.80
HOLIDAYS/DAYLIGHT SAVINGS,No,0,0,0
COMMENTS 1,"NCEI ISD/ERA5 - #years=[15] Period of Record=2011-2025; Jan=2019; Feb=2018; Mar=2025; Apr=2021; May=2015; Jun=2016; Jul=2016; Aug=2020; Sep=2014; Oct=2024; Nov=2012; Dec=2020"
COMMENTS 2,"Downloaded from Climate.Onebuilding.org -- Ground temps represent undisturbed earth temperatures - calculated from this weather data."
DATA PERIODS,1,1,Data,Wednesday,7/21,7/21
2026,7,21,8,43,?9?9?9?9E0?9?9?9*9*9?9?9?9?9?9?9*9?9*9*9?9*9,32.30,24.23,62.6,95580,0,0,385,0,0,0,0,0,0,0,208,0.52,10,10,8333.0,282,9,999999999,79,0.2200,0,88,0.160,0.0,0.0
2026,7,21,8,44,?9?9?9?9E0?9?9?9*9*9?9?9?9?9?9?9*9?9*9*9?9*9,32.33,24.23,62.5,95580,0,0,391,0,0,0,0,0,0,0,205,0.46,10,10,8333.0,314,9,999999999,81,0.2200,0,88,0.160,0.0,0.0
2026,7,21,8,45,?9?9?9?9E0?9?9?9?9?9?9?9?9?9?9?9*9?9*9*9?9*9,32.37,24.21,62.3,95581,0,0,399,0,0,0,0,0,0,0,206,0.52,8,8,8333.0,510,9,999999999,82,0.2200,0,88,0.160,0.0,0.0
2026,7,21,8,46,?9?9?9?9E0?9?9?9*9*9?9?9?9?9?9?9*9?9*9*9?9*9,32.39,24.24,62.3,95580,0,0,387,0,0,0,0,0,0,0,203,0.62,10,10,8333.0,723,9,999999999,79,0.2200,0,88,0.160,0.0,0.0
2026,7,21,8,47,?9?9?9?9E0?9?9?9*9*9?9?9?9?9?9?9*9?9*9*9?9*9,32.45,24.29,62.3,95582,0,0,382,0,0,0,0,0,0,0,201,0.81,10,10,8333.0,482,9,999999999,76,0.2200,0,88,0.160,0.0,0.0
2026,7,21,8,48,?9?9?9?9E0?9?9?9?9?9?9?9?9?9?9?9*9?9*9*9?9*9,32.43,24.28,62.3,95583,0,0,377,0,0,0,0,0,0,0,198,0.74,5,5,8333.0,801,9,999999999,73,0.2200,0,88,0.160,0.0,0.0
2026,7,21,8,49,?9?9?9?9E0?9?9?9*9*9?9?9?9?9?9?9*9?9*9*9?9*9,32.42,24.35,62.6,95580,306,1269,377,77,195,30,18896,37224,7116,2991,203,0.64,9,9,8333.0,789,9,999999999,74,0.2200,0,88,0.160,0.0,0.0
2026,7,21,8,50,?9?9?9?9E0?9?9?9*9*9?9?9?9?9?9?9*9?9*9*9?9*9,32.36,24.37,62.9,95581,609,1323,380,253,489,73,40863,59722,12106,3284,212,0.45,8,8,8333.0,257,9,999999999,76,0.2200,0,88,0.160,0.0,0.0
2026,7,21,8,51,?9?9?9?9E0?9?9?9?9?9?9?9?9?9?9?9*9?9*9*9?9*9,32.28,24.31,63.0,95580,874,1323,389,452,625,98,61611,64659,16685,2937,224,0.44,5,5,8333.0,380,9,999999999,77,0.2200,0,88,0.160,0.0,0.0
2026,7,21,8,52,?9?9?9?9E0?9?9?9?9?9?9?9?9?9?9?9*9?9*9*9?9*9,32.15,24.29,63.4,95577,1084,1323,396,617,672,119,77407,62713,19782,2561,240,0.27,5,5,8333.0,702,9,999999999,77,0.2200,0,88,0.160,0.0,0.0
2026,7,21,8,53,?9?9?9?9E0?9?9?9*9*9?9?9?9?9?9?9*9?9*9*9?9*9,32.12,24.30,63.5,95573,1224,1323,397,775,733,133,86984,53750,20186,2533,251,0.46,6,6,8333.0,752,9,999999999,78,0.2200,0,88,0.160,0.0,0.0
2026,7,21,8,54,?9?9?9?9E0?9?9?9?9?9?9?9?9?9?9?9*9?9*9*9?9*9,32.13,24.32,63.5,95572,1285,1323,406,861,766,134,90565,47215,21079,2800,320,0.49,6,6,8333.0,886,9,999999999,80,0.2200,0,88,0.160,0.0,0.0
2026,7,21,8,55,?9?9?9?9E0?9?9?9*9*9?9?9?9?9?9?9*9?9*9*9?9*9,32.23,24.37,63.4,95571,1262,1323,413,865,746,146,91799,58143,22877,3000,258,0.46,5,5,8333.0,1034,9,999999999,81,0.2200,0,88,0.160,0.1,0.0
2026,7,21,8,56,?9?9?9?9E0?9?9?9*9*9?9?9?9?9?9?9*9?9*9*9?9*9,32.30,24.33,62.9,95580,1157,1323,414,836,745,154,86460,66086,23276,3504,258,0.51,5,5,8333.0,926,9,999999999,83,0.2200,0,88,0.160,0.2,0.0
2026,7,21,8,57,?9?9?9?9E0?9?9?9?9?9?9?9?9?9?9?9*9?9*9*9?9*9,32.30,24.24,62.6,95579,978,1323,412,704,686,146,70350,63699,20530,4499,270,0.73,8,8,8333.0,540,9,999999999,84,0.2200,0,88,0.160,0.2,0.0
2026,7,21,8,58,?9?9?9?9E0?9?9?9*9*9?9?9?9?9?9?9*9?9*9*9?9*9,32.30,24.22,62.6,95584,736,1323,414,515,588,130,49412,55962,16280,6105,263,0.58,6,6,8333.0,1052,9,999999999,85,0.2200,0,88,0.160,0.0,0.0
2026,7,21,8,59,?9?9?9?9E0?9?9?9*9*9?9?9?9?9?9?9*9?9*9*9?9*9,32.41,24.23,62.2,95580,448,1323,411,323,464,105,27702,37441,11493,7346,252,0.72,6,6,8333.0,813,9,999999999,86,0.2200,0,88,0.160,0.0,0.0
2026,7,21,9,0,?9?9?9?9E0?9?9?9?9?9?9?9?9?9?9?9*9?9*9*9?9*9,32.56,24.20,61.6,95581,133,1323,413,128,232,59,9496,14742,5584,5094,247,0.66,9,9,8333.0,8400,9,999999999,86,0.2200,0,88,0.160,0.0,0.0
2026,7,21,9,1,?9?9?9?9E0?9?9?9*9*9?9?9?9?9?9?9*9?9*9*9?9*9,32.63,24.18,61.3,95583,0,551,410,20,0,16,1336,2125,1336,1318,243,0.55,7,7,8333.0,1014,9,999999999,87,0.2200,0,88,0.160,0.0,0.0
2026,7,21,9,2,?9?9?9?9E0?9?9?9*9*9?9?9?9?9?9?9*9?9*9*9?9*9,32.46,24.00,61.2,95580,0,0,409,0,0,0,0,0,0,0,235,0.47,8,8,8333.0,1096,9,999999999,87,0.2200,0,88,0.160,0.0,0.0
2026,7,21,9,3,?9?9?9?9E0?9?9?9?9?9?9?9?9?9?9?9*9?9*9*9?9*9,32.37,23.99,61.5,95577,0,0,402,0,0,0,0,0,0,0,222,0.43,9,9,8333.0,8400,9,999999999,87,0.2200,0,88,0.160,0.0,0.0
2026,7,21,9,4,?9?9?9?9E0?9?9?9*9*9?9?9?9?9?9?9*9?9*9*9?9*9,32.38,24.08,61.8,95573,0,0,395,0,0,0,0,0,0,0,217,0.53,9,9,8333.0,935,9,999999999,86,0.2200,0,88,0.160,0.0,0.0
2026,7,21,9,5,?9?9?9?9E0?9?9?9*9*9?9?9?9?9?9?9*9?9*9*9?9*9,32.44,24.14,61.8,95574,0,0,394,0,0,0,0,0,0,0,219,0.73,9,9,8333.0,407,9,999999999,85,0.2200,0,88,0.160,0.0,0.0
2026,7,21,9,6,?9?9?9?9E0?9?9?9?9?9?9?9?9?9?9?9*9?9*9*9?9*9,32.57,24.27,61.8,95576,0,0,403,0,0,0,0,0,0,0,218,1.08,9,9,8333.0,9000,9,999999999,84,0.2200,0,88,0.160,0.0,0.0
2026,7,21,9,7,?9?9?9?9E0?9?9?9*9*9?9?9?9?9?9?9*9?9*9*9?9*9,32.57,24.18,61.5,95572,0,0,385,0,0,0,0,0,0,0,208,0.47,10,10,8333.0,282,9,999999999,79,0.2200,0,88,0.160,0.0,0.0
2026,7,21,9,8,?9?9?9?9E0?9?9?9*9*9?9?9?9?9?9?9*9?9*9*9?9*9,32.56,24.23,61.7,95572,0,0,391,0,0,0,0,0,0,0,205,0.94,10,10,8333.0,314,9,999999999,81,0.2200,0,88,0.160,0.0,0.0
2026,7,21,9,9,?9?9?9?9E0?9?9?9?9?9?9?9?9?9?9?9*9?9*9*9?9*9,32.59,24.24,61.6,95570,0,0,399,0,0,0,0,0,0,0,206,0.62,8,8,8333.0,510,9,999999999,82,0.2200,0,88,0.160,0.0,0.0
2026,7,21,9,10,?9?9?9?9E0?9?9?9*9*9?9?9?9?9?9?9*9?9*9*9?9*9,32.60,24.28,61.7,95569,0,0,387,0,0,0,0,0,0,0,203,0.53,10,10,8333.0,723,9,999999999,79,0.2200,0,88,0.160,0.0,0.0
2026,7,21,9,11,?9?9?9?9E0?9?9?9*9*9?9?9?9?9?9?9*9?9*9*9?9*9,32.66,24.30,61.6,95571,0,0,382,0,0,0,0,0,0,0,201,0.64,10,10,8333.0,482,9,999999999,76,0.2200,0,88,0.160,0.0,0.0
2026,7,21,9,12,?9?9?9?9E0?9?9?9?9?9?9?9?9?9?9?9*9?9*9*9?9*9,32.77,24.34,61.4,95572,0,0,377,0,0,0,0,0,0,0,198,1.00,5,5,8333.0,801,9,999999999,73,0.2200,0,88,0.160,0.0,0.0
2026,7,21,9,13,?9?9?9?9E0?9?9?9*9*9?9?9?9?9?9?9*9?9*9*9?9*9,32.76,24.24,61.0,95568,306,1269,377,77,195,30,18896,37224,7116,2991,203,0.48,9,9,8333.0,789,9,999999999,74,0.2200,0,88,0.160,0.0,0.0
2026,7,21,9,14,?9?9?9?9E0?9?9?9*9*9?9?9?9?9?9?9*9?9*9*9?9*9,32.77,24.27,61.1,95571,609,1323,380,253,489,73,40863,59722,12106,3284,212,0.79,8,8,8333.0,257,9,999999999,76,0.2200,0,88,0.160,0.0,0.0
2026,7,21,9,15,?9?9?9?9E0?9?9?9?9?9?9?9?9?9?9?9*9?9*9*9?9*9,32.67,24.12,60.9,95571,874,1323,389,452,625,98,61611,64659,16685,2937,224,0.63,5,5,8333.0,380,9,999999999,77,0.2200,0,88,0.160,0.0,0.0
2026,7,21,9,16,?9?9?9?9E0?9?9?9?9?9?9?9?9?9?9?9*9?9*9*9?9*9,32.62,24.12,61.1,95572,1084,1323,396,617,672,119,77407,62713,19782,2561,240,0.40,5,5,8333.0,702,9,999999999,77,0.2200,0,88,0.160,0.0,0.0
2026,7,21,9,17,?9?9?9?9E0?9?9?9*9*9?9?9?9?9?9?9*9?9*9*9?9*9,32.54,24.15,61.5,95571,1224,1323,397,775,733,133,86984,53750,20186,2533,251,0.44,6,6,8333.0,752,9,999999999,78,0.2200,0,88,0.160,0.0,0.0
2026,7,21,9,18,?9?9?9?9E0?9?9?9?9?9?9?9?9?9?9?9*9?9*9*9?9*9,32.57,24.23,61.7,95573,1285,1323,406,861,766,134,90565,47215,21079,2800,320,0.42,6,6,8333.0,886,9,999999999,80,0.2200,0,88,0.160,0.0,0.0
2026,7,21,9,19,?9?9?9?9E0?9?9?9*9*9?9?9?9?9?9?9*9?9*9*9?9*9,32.53,24.16,61.5,95571,1262,1323,413,865,746,146,91799,58143,22877,3000,258,0.61,5,5,8333.0,1034,9,999999999,81,0.2200,0,88,0.160,0.1,0.0
2026,7,21,9,20,?9?9?9?9E0?9?9?9*9*9?9?9?9?9?9?9*9?9*9*9?9*9,32.68,24.24,61.3,95577,1157,1323,414,836,745,154,86460,66086,23276,3504,258,0.85,5,5,8333.0,926,9,999999999,83,0.2200,0,88,0.160,0.2,0.0
2026,7,21,9,21,?9?9?9?9E0?9?9?9?9?9?9?9?9?9?9?9*9?9*9*9?9*9,32.70,24.17,61.0,95578,978,1323,412,704,686,146,70350,63699,20530,4499,270,0.36,8,8,8333.0,540,9,999999999,84,0.2200,0,88,0.160,0.2,0.0
2026,7,21,9,22,?9?9?9?9E0?9?9?9*9*9?9?9?9?9?9?9*9?9*9*9?9*9,32.62,24.12,61.1,95581,736,1323,414,515,588,130,49412,55962,16280,6105,263,0.65,6,6,8333.0,1052,9,999999999,85,0.2200,0,88,0.160,0.0,0.0
2026,7,21,9,23,?9?9?9?9E0?9?9?9*9*9?9?9?9?9?9?9*9?9*9*9?9*9,32.64,24.12,61.0,95579,448,1323,411,323,464,105,27702,37441,11493,7346,252,0.52,6,6,8333.0,813,9,999999999,86,0.2200,0,88,0.160,0.0,0.0
2026,7,21,9,24,?9?9?9?9E0?9?9?9?9?9?9?9?9?9?9?9*9?9*9*9?9*9,32.62,24.00,60.6,95582,133,1323,413,128,232,59,9496,14742,5584,5094,247,0.47,9,9,8333.0,8400,9,999999999,86,0.2200,0,88,0.160,0.0,0.0
2026,7,21,9,25,?9?9?9?9E0?9?9?9*9*9?9?9?9?9?9?9*9?9*9*9?9*9,32.60,23.95,60.5,95581,0,551,410,20,0,16,1336,2125,1336,1318,243,0.70,7,7,8333.0,1014,9,999999999,87,0.2200,0,88,0.160,0.0,0.0
2026,7,21,9,26,?9?9?9?9E0?9?9?9*9*9?9?9?9?9?9?9*9?9*9*9?9*9,32.66,23.92,60.2,95585,0,0,409,0,0,0,0,0,0,0,235,0.45,8,8,8333.0,1096,9,999999999,87,0.2200,0,88,0.160,0.0,0.0
2026,7,21,9,27,?9?9?9?9E0?9?9?9?9?9?9?9?9?9?9?9*9?9*9*9?9*9,32.69,23.95,60.2,95589,0,0,402,0,0,0,0,0,0,0,222,0.67,9,9,8333.0,8400,9,999999999,87,0.2200,0,88,0.160,0.0,0.0
2026,7,21,9,28,?9?9?9?9E0?9?9?9*9*9?9?9?9?9?9?9*9?9*9*9?9*9,32.71,23.87,59.9,95589,0,0,395,0,0,0,0,0,0,0,217,0.49,9,9,8333.0,935,9,999999999,86,0.2200,0,88,0.160,0.0,0.0
2026,7,21,9,29,?9?9?9?9E0?9?9?9*9*9?9?9?9?9?9?9*9?9*9*9?9*9,32.76,23.78,59.4,95591,0,0,394,0,0,0,0,0,0,0,219,0.72,9,9,8333.0,407,9,999999999,85,0.2200,0,88,0.160,0.0,0.0
2026,7,21,9,30,?9?9?9?9E0?9?9?9?9?9?9?9?9?9?9?9*9?9*9*9?9*9,32.82,23.84,59.4,95593,0,0,403,0,0,0,0,0,0,0,218,0.45,9,9,8333.0,9000,9,999999999,84,0.2200,0,88,0.160,0.0,0.0
2026,7,21,9,31,?9?9?9?9E0?9?9?9*9*9?9?9?9?9?9?9*9?9*9*9?9*9,32.73,23.82,59.6,95592,0,0,385,0,0,0,0,0,0,0,208,0.53,10,10,8333.0,282,9,999999999,79,0.2200,0,88,0.160,0.0,0.0
2026,7,21,9,32,?9?9?9?9E0?9?9?9*9*9?9?9?9?9?9?9*9?9*9*9?9*9,32.70,23.77,59.5,95592,0,0,391,0,0,0,0,0,0,0,205,0.26,10,10,8333.0,314,9,999999999,81,0.2200,0,88,0.160,0.0,0.0
2026,7,21,9,33,?9?9?9?9E0?9?9?9?9?9?9?9?9?9?9?9*9?9*9*9?9*9,32.70,23.79,59.6,95592,0,0,399,0,0,0,0,0,0,0,206,0.66,8,8,8333.0,510,9,999999999,82,0.2200,0,88,0.160,0.0,0.0
2026,7,21,9,34,?9?9?9?9E0?9?9?9*9*9?9?9?9?9?9?9*9?9*9*9?9*9,32.74,23.80,59.5,95588,0,0,387,0,0,0,0,0,0,0,203,0.81,10,10,8333.0,723,9,999999999,79,0.2200,0,88,0.160,0.0,0.0
2026,7,21,9,35,?9?9?9?9E0?9?9?9*9*9?9?9?9?9?9?9*9?9*9*9?9*9,32.76,23.72,59.2,95586,0,0,382,0,0,0,0,0,0,0,201,0.64,10,10,8333.0,482,9,999999999,76,0.2200,0,88,0.160,0.0,0.0
2026,7,21,9,36,?9?9?9?9E0?9?9?9?9?9?9?9?9?9?9?9*9?9*9*9?9*9,32.81,23.81,59.3,95580,0,0,377,0,0,0,0,0,0,0,198,0.71,5,5,8333.0,801,9,999999999,73,0.2200,0,88,0.160,0.0,0.0
2026,7,21,9,37,?9?9?9?9E0?9?9?9*9*9?9?9?9?9?9?9*9?9*9*9?9*9,32.76,23.81,59.5,95581,306,1269,377,77,195,30,18896,37224,7116,2991,203,0.32,9,9,8333.0,789,9,999999999,74,0.2200,0,88,0.160,0.0,0.0
2026,7,21,9,38,?9?9?9?9E0?9?9?9*9*9?9?9?9?9?9?9*9?9*9*9?9*9,32.68,23.80,59.7,95580,609,1323,380,253,489,73,40863,59722,12106,3284,212,0.43,8,8,8333.0,257,9,999999999,76,0.2200,0,88,0.160,0.0,0.0
2026,7,21,9,39,?9?9?9?9E0?9?9?9?9?9?9?9?9?9?9?9*9?9*9*9?9*9,32.65,23.87,60.0,95576,874,1323,389,452,625,98,61611,64659,16685,2937,224,0.26,5,5,8333.0,380,9,999999999,77,0.2200,0,88,0.160,0.0,0.0
2026,7,21,9,40,?9?9?9?9E0?9?9?9?9?9?9?9?9?9?9?9*9?9*9*9?9*9,32.68,23.93,60.2,95574,1084,1323,396,617,672,119,77407,62713,19782,2561,240,0.60,5,5,8333.0,702,9,999999999,77,0.2200,0,88,0.160,0.0,0.0
2026,7,21,9,41,?9?9?9?9E0?9?9?9*9*9?9?9?9?9?9?9*9?9*9*9?9*9,32.62,23.90,60.3,95570,1224,1323,397,775,733,133,86984,53750,20186,2533,251,0.25,6,6,8333.0,752,9,999999999,78,0.2200,0,88,0.160,0.0,0.0
2026,7,21,9,42,?9?9?9?9E0?9?9?9?9?9?9?9?9?9?9?9*9?9*9*9?9*9,32.52,23.89,60.6,95570,1285,1323,406,861,766,134,90565,47215,21079,2800,320,0.58,6,6,8333.0,886,9,999999999,80,0.2200,0,88,0.160,0.0,0.0
2026,7,21,9,43,?9?9?9?9E0?9?9?9*9*9?9?9?9?9?9?9*9?9*9*9?9*9,32.58,23.94,60.5,95572,1262,1323,413,865,746,146,91799,58143,22877,3000,258,1.02,5,5,8333.0,1034,9,999999999,81,0.2200,0,88,0.160,0.1,0.0
2026,7,21,9,44,?9?9?9?9E0?9?9?9*9*9?9?9?9?9?9?9*9?9*9*9?9*9,32.68,23.95,60.3,95575,1157,1323,414,836,745,154,86460,66086,23276,3504,258,0.56,5,5,8333.0,926,9,999999999,83,0.2200,0,88,0.160,0.2,0.0
2026,7,21,9,45,?9?9?9?9E0?9?9?9?9?9?9?9?9?9?9?9*9?9*9*9?9*9,32.69,23.90,60.0,95572,978,1323,412,704,686,146,70350,63699,20530,4499,270,0.65,8,8,8333.0,540,9,999999999,84,0.2200,0,88,0.160,0.2,0.0
2026,7,21,9,46,?9?9?9?9E0?9?9?9*9*9?9?9?9?9?9?9*9?9*9*9?9*9,32.74,23.91,59.9,95570,736,1323,414,515,588,130,49412,55962,16280,6105,263,0.56,6,6,8333.0,1052,9,999999999,85,0.2200,0,88,0.160,0.0,0.0
2026,7,21,9,47,?9?9?9?9E0?9?9?9*9*9?9?9?9?9?9?9*9?9*9*9?9*9,32.67,23.61,59.1,95567,448,1323,411,323,464,105,27702,37441,11493,7346,252,0.29,6,6,8333.0,813,9,999999999,86,0.2200,0,88,0.160,0.0,0.0
2026,7,21,9,48,?9?9?9?9E0?9?9?9?9?9?9?9?9?9?9?9*9?9*9*9?9*9,32.71,23.69,59.2,95568,133,1323,413,128,232,59,9496,14742,5584,5094,247,0.79,9,9,8333.0,8400,9,999999999,86,0.2200,0,88,0.160,0.0,0.0
2026,7,21,9,49,?9?9?9?9E0?9?9?9*9*9?9?9?9?9?9?9*9?9*9*9?9*9,32.77,23.72,59.1,95570,0,551,410,20,0,16,1336,2125,1336,1318,243,0.53,7,7,8333.0,1014,9,999999999,87,0.2200,0,88,0.160,0.0,0.0
2026,7,21,9,50,?9?9?9?9E0?9?9?9*9*9?9?9?9?9?9?9*9?9*9*9?9*9,32.68,23.60,59.0,95568,0,0,409,0,0,0,0,0,0,0,235,0.21,8,8,8333.0,1096,9,999999999,87,0.2200,0,88,0.160,0.0,0.0
2026,7,21,9,51,?9?9?9?9E0?9?9?9?9?9?9?9?9?9?9?9*9?9*9*9?9*9,32.59,23.62,59.4,95565,0,0,402,0,0,0,0,0,0,0,222,0.57,9,9,8333.0,8400,9,999999999,87,0.2200,0,88,0.160,0.0,0.0
2026,7,21,9,52,?9?9?9?9E0?9?9?9*9*9?9?9?9?9?9?9*9?9*9*9?9*9,32.60,23.67,59.5,95563,0,0,395,0,0,0,0,0,0,0,217,0.56,9,9,8333.0,935,9,999999999,86,0.2200,0,88,0.160,0.0,0.0
2026,7,21,9,53,?9?9?9?9E0?9?9?9*9*9?9?9?9?9?9?9*9?9*9*9?9*9,32.55,23.66,59.7,95563,0,0,394,0,0,0,0,0,0,0,219,0.55,9,9,8333.0,407,9,999999999,85,0.2200,0,88,0.160,0.0,0.0
2026,7,21,9,54,?9?9?9?9E0?9?9?9?9?9?9?9?9?9?9?9*9?9*9*9?9*9,32.56,23.65,59.6,95563,0,0,403,0,0,0,0,0,0,0,218,0.52,9,9,8333.0,9000,9,999999999,84,0.2200,0,88,0.160,0.0,0.0
2026,7,21,9,55,?9?9?9?9E0?9?9?9*9*9?9?9?9?9?9?9*9?9*9*9?9*9,32.56,23.59,59.4,95564,0,0,385,0,0,0,0,0,0,0,208,0.30,10,10,8333.0,282,9,999999999,79,0.2200,0,88,0.160,0.0,0.0
2026,7,21,9,56,?9?9?9?9E0?9?9?9*9*9?9?9?9?9?9?9*9?9*9*9?9*9,32.51,23.52,59.3,95560,0,0,391,0,0,0,0,0,0,0,205,0.69,10,10,8333.0,314,9,999999999,81,0.2200,0,88,0.160,0.0,0.0
2026,7,21,9,57,?9?9?9?9E0?9?9?9?9?9?9?9?9?9?9?9*9?9*9*9?9*9,32.63,23.73,59.6,95561,0,0,399,0,0,0,0,0,0,0,206,0.51,8,8,8333.0,510,9,999999999,82,0.2200,0,88,0.160,0.0,0.0
2026,7,21,9,58,?9?9?9?9E0?9?9?9*9*9?9?9?9?9?9?9*9?9*9*9?9*9,32.63,23.68,59.5,95559,0,0,387,0,0,0,0,0,0,0,203,0.54,10,10,8333.0,723,9,999999999,79,0.2200,0,88,0.160,0.0,0.0
2026,7,21,9,59,?9?9?9?9E0?9?9?9*9*9?9?9?9?9?9?9*9?9*9*9?9*9,32.62,23.64,59.3,95558,0,0,382,0,0,0,0,0,0,0,201,0.24,10,10,8333.0,482,9,999999999,76,0.2200,0,88,0.160,0.0,0.0
2026,7,21,10,0,?9?9?9?9E0?9?9?9?9?9?9?9?9?9?9?9*9?9*9*9?9*9,32.53,23.57,59.4,95558,0,0,377,0,0,0,0,0,0,0,198,0.44,5,5,8333.0,801,9,999999999,73,0.2200,0,88,0.160,0.0,0.0
2026,7,21,10,1,?9?9?9?9E0?9?9?9*9*9?9?9?9?9?9?9*9?9*9*9?9*9,32.48,23.57,59.6,95552,306,1269,377,77,195,30,18896,37224,7116,2991,203,0.26,9,9,8333.0,789,9,999999999,74,0.2200,0,88,0.160,0.0,0.0
2026,7,21,10,2,?9?9?9?9E0?9?9?9*9*9?9?9?9?9?9?9*9?9*9*9?9*9,32.41,23.47,59.4,95548,609,1323,380,253,489,73,40863,59722,12106,3284,212,0.23,8,8,8333.0,257,9,999999999,76,0.2200,0,88,0.160,0.0,0.0
2026,7,21,10,3,?9?9?9?9E0?9?9?9?9?9?9?9?9?9?9?9*9?9*9*9?9*9,32.44,23.57,59.7,95550,874,1323,389,452,625,98,61611,64659,16685,2937,224,0.54,5,5,8333.0,380,9,999999999,77,0.2200,0,88,0.160,0.0,0.0
2026,7,21,10,4,?9?9?9?9E0?9?9?9?9?9?9?9?9?9?9?9*9?9*9*9?9*9,32.50,23.64,59.7,95548,1084,1323,396,617,672,119,77407,62713,19782,2561,240,0.75,5,5,8333.0,702,9,999999999,77,0.2200,0,88,0.160,0.0,0.0
2026,7,21,10,5,?9?9?9?9E0?9?9?9*9*9?9?9?9?9?9?9*9?9*9*9?9*9,32.55,23.67,59.7,95550,1224,1323,397,775,733,133,86984,53750,20186,2533,251,0.42,6,6,8333.0,752,9,999999999,78,0.2200,0,88,0.160,0.0,0.0
2026,7,21,10,6,?9?9?9?9E0?9?9?9?9?9?9?9?9?9?9?9*9?9*9*9?9*9,32.60,23.68,59.6,95551,1285,1323,406,861,766,134,90565,47215,21079,2800,320,0.80,6,6,8333.0,886,9,999999999,80,0.2200,0,88,0.160,0.0,0.0
2026,7,21,10,7,?9?9?9?9E0?9?9?9*9*9?9?9?9?9?9?9*9?9*9*9?9*9,32.71,23.83,59.7,95555,1262,1323,413,865,746,146,91799,58143,22877,3000,258,1.27,5,5,8333.0,1034,9,999999999,81,0.2200,0,88,0.160,0.1,0.0
2026,7,21,10,8,?9?9?9?9E0?9?9?9*9*9?9?9?9?9?9?9*9?9*9*9?9*9,32.78,23.91,59.8,95556,1157,1323,414,836,745,154,86460,66086,23276,3504,258,0.63,5,5,8333.0,926,9,999999999,83,0.2200,0,88,0.160,0.2,0.0
2026,7,21,10,9,?9?9?9?9E0?9?9?9?9?9?9?9?9?9?9?9*9?9*9*9?9*9,32.72,23.86,59.8,95555,978,1323,412,704,686,146,70350,63699,20530,4499,270,0.77,8,8,8333.0,540,9,999999999,84,0.2200,0,88,0.160,0.2,0.0
2026,7,21,10,10,?9?9?9?9E0?9?9?9*9*9?9?9?9?9?9?9*9?9*9*9?9*9,32.72,23.82,59.6,95554,736,1323,414,515,588,130,49412,55962,16280,6105,263,0.48,6,6,8333.0,1052,9,999999999,85,0.2200,0,88,0.160,0.0,0.0
2026,7,21,10,11,?9?9?9?9E0?9?9?9*9*9?9?9?9?9?9?9*9?9*9*9?9*9,32.65,23.74,59.6,95551,448,1323,411,323,464,105,27702,37441,11493,7346,252,0.41,6,6,8333.0,813,9,999999999,86,0.2200,0,88,0.160,0.0,0.0
2026,7,21,10,12,?9?9?9?9E0?9?9?9?9?9?9?9?9?9?9?9*9?9*9*9?9*9,32.60,23.77,59.9,95552,133,1323,413,128,232,59,9496,14742,5584,5094,247,0.56,9,9,8333.0,8400,9,999999999,86,0.2200,0,88,0.160,0.0,0.0
2026,7,21,10,13,?9?9?9?9E0?9?9?9*9*9?9?9?9?9?9?9*9?9*9*9?9*9,32.61,23.81,60.0,95553,0,551,410,20,0,16,1336,2125,1336,1318,243,0.60,7,7,8333.0,1014,9,999999999,87,0.2200,0,88,0.160,0.0,0.0
2026,7,21,10,14,?9?9?9?9E0?9?9?9*9*9?9?9?9?9?9?9*9?9*9*9?9*9,32.64,23.89,60.1,95551,0,0,409,0,0,0,0,0,0,0,235,0.85,8,8,8333.0,1096,9,999999999,87,0.2200,0,88,0.160,0.0,0.0
2026,7,21,10,15,?9?9?9?9E0?9?9?9?9?9?9?9?9?9?9?9*9?9*9*9?9*9,32.74,24.02,60.3,95552,0,0,402,0,0,0,0,0,0,0,222,1.13,9,9,8333.0,8400,9,999999999,87,0.2200,0,88,0.160,0.0,0.0
2026,7,21,10,16,?9?9?9?9E0?9?9?9*9*9?9?9?9?9?9?9*9?9*9*9?9*9,32.81,23.91,59.7,95546,0,0,395,0,0,0,0,0,0,0,217,0.97,9,9,8333.0,935,9,999999999,86,0.2200,0,88,0.160,0.0,0.0
2026,7,21,10,17,?9?9?9?9E0?9?9?9*9*9?9?9?9?9?9?9*9?9*9*9?9*9,32.82,23.90,59.6,95547,0,0,394,0,0,0,0,0,0,0,219,0.93,9,9,8333.0,407,9,999999999,85,0.2200,0,88,0.160,0.0,0.0
2026,7,21,10,18,?9?9?9?9E0?9?9?9?9?9?9?9?9?9?9?9*9?9*9*9?9*9,32.81,23.81,59.3,95545,0,0,403,0,0,0,0,0,0,0,218,0.57,9,9,8333.0,9000,9,999999999,84,0.2200,0,88,0.160,0.0,0.0
2026,7,21,10,19,?9?9?9?9E0?9?9?9*9*9?9?9?9?9?9?9*9?9*9*9?9*9,32.71,23.81,59.7,95542,0,0,385,0,0,0,0,0,0,0,208,0.84,10,10,8333.0,282,9,999999999,79,0.2200,0,88,0.160,0.0,0.0
2026,7,21,10,20,?9?9?9?9E0?9?9?9*9*9?9?9?9?9?9?9*9?9*9*9?9*9,32.68,23.89,60.0,95543,0,0,391,0,0,0,0,0,0,0,205,0.66,10,10,8333.0,314,9,999999999,81,0.2200,0,88,0.160,0.0,0.0
2026,7,21,10,21,?9?9?9?9E0?9?9?9?9?9?9?9?9?9?9?9*9?9*9*9?9*9,32.70,23.97,60.3,95542,0,0,399,0,0,0,0,0,0,0,206,1.01,8,8,8333.0,510,9,999999999,82,0.2200,0,88,0.160,0.0,0.0
2026,7,21,10,22,?9?9?9?9E0?9?9?9*9*9?9?9?9?9?9?9*9?9*9*9?9*9,32.73,23.93,60.0,95541,0,0,387,0,0,0,0,0,0,0,203,0.87,10,10,8333.0,723,9,999999999,79,0.2200,0,88,0.160,0.0,0.0
2026,7,21,10,23,?9?9?9?9E0?9?9?9*9*9?9?9?9?9?9?9*9?9*9*9?9*9,32.70,23.86,59.9,95536,0,0,382,0,0,0,0,0,0,0,201,0.85,10,10,8333.0,482,9,999999999,76,0.2200,0,88,0.160,0.0,0.0
2026,7,21,10,24,?9?9?9?9E0?9?9?9?9?9?9?9?9?9?9?9*9?9*9*9?9*9,32.82,24.10,60.3,95537,0,0,377,0,0,0,0,0,0,0,198,1.58,5,5,8333.0,801,9,999999999,73,0.2200,0,88,0.160,0.0,0.0
2026,7,21,10,25,?9?9?9?9E0?9?9?9*9*9?9?9?9?9?9?9*9?9*9*9?9*9,32.81,24.05,60.2,95533,306,1269,377,77,195,30,18896,37224,7116,2991,203,0.74,9,9,8333.0,789,9,999999999,74,0.2200,0,88,0.160,0.0,0.0
2026,7,21,10,26,?9?9?9?9E0?9?9?9*9*9?9?9?9?9?9?9*9?9*9*9?9*9,32.77,24.01,60.2,95533,609,1323,380,253,489,73,40863,59722,12106,3284,212,1.26,8,8,8333.0,257,9,999999999,76,0.2200,0,88,0.160,0.0,0.0
2026,7,21,10,27,?9?9?9?9E0?9?9?9?9?9?9?9?9?9?9?9*9?9*9*9?9*9,32.75,24.05,60.4,95531,874,1323,389,452,625,98,61611,64659,16685,2937,224,0.83,5,5,8333.0,380,9,999999999,77,0.2200,0,88,0.160,0.0,0.0
2026,7,21,10,28,?9?9?9?9E0?9?9?9?9?9?9?9?9?9?9?9*9?9*9*9?9*9,32.79,24.08,60.3,95530,1084,1323,396,617,672,119,77407,62713,19782,2561,240,1.00,5,5,8333.0,702,9,999999999,77,0.2200,0,88,0.160,0.0,0.0
2026,7,21,10,29,?9?9?9?9E0?9?9?9*9*9?9?9?9?9?9?9*9?9*9*9?9*9,32.74,23.99,60.2,95531,1224,1323,397,775,733,133,86984,53750,20186,2533,251,0.82,6,6,8333.0,752,9,999999999,78,0.2200,0,88,0.160,0.0,0.0
2026,7,21,10,30,?9?9?9?9E0?9?9?9?9?9?9?9?9?9?9?9*9?9*9*9?9*9,32.71,23.98,60.2,95531,1285,1323,406,861,766,134,90565,47215,21079,2800,320,0.79,6,6,8333.0,886,9,999999999,80,0.2200,0,88,0.160,0.0,0.0
2026,7,21,10,31,?9?9?9?9E0?9?9?9*9*9?9?9?9?9?9?9*9?9*9*9?9*9,32.74,24.06,60.4,95529,1262,1323,413,865,746,146,91799,58143,22877,3000,258,0.62,5,5,8333.0,1034,9,999999999,81,0.2200,0,88,0.160,0.1,0.0
2026,7,21,10,32,?9?9?9?9E0?9?9?9*9*9?9?9?9?9?9?9*9?9*9*9?9*9,32.67,23.94,60.2,95531,1157,1323,414,836,745,154,86460,66086,23276,3504,258,0.50,5,5,8333.0,926,9,999999999,83,0.2200,0,88,0.160,0.2,0.0
2026,7,21,10,33,?9?9?9?9E0?9?9?9?9?9?9?9?9?9?9?9*9?9*9*9?9*9,32.64,23.95,60.4,95539,978,1323,412,704,686,146,70350,63699,20530,4499,270,0.71,8,8,8333.0,540,9,999999999,84,0.2200,0,88,0.160,0.2,0.0
2026,7,21,10,34,?9?9?9?9E0?9?9?9*9*9?9?9?9?9?9?9*9?9*9*9?9*9,32.71,23.96,60.2,95539,736,1323,414,515,588,130,49412,55962,16280,6105,263,0.84,6,6,8333.0,1052,9,999999999,85,0.2200,0,88,0.160,0.0,0.0
2026,7,21,10,35,?9?9?9?9E0?9?9?9*9*9?9?9?9?9?9?9*9?9*9*9?9*9,32.68,23.97,60.3,95537,448,1323,411,323,464,105,27702,37441,11493,7346,252,0.42,6,6,8333.0,813,9,999999999,86,0.2200,0,88,0.160,0.0,0.0
2026,7,21,10,36,?9?9?9?9E0?9?9?9?9?9?9?9?9?9?9?9*9?9*9*9?9*9,32.58,23.86,60.3,95532,133,1323,413,128,232,59,9496,14742,5584,5094,247,0.54,9,9,8333.0,8400,9,999999999,86,0.2200,0,88,0.160,0.0,0.0
2026,7,21,10,37,?9?9?9?9E0?9?9?9*9*9?9?9?9?9?9?9*9?9*9*9?9*9,32.63,23.89,60.2,95533,0,551,410,20,0,16,1336,2125,1336,1318,243,0.70,7,7,8333.0,1014,9,999999999,87,0.2200,0,88,0.160,0.0,0.0
2026,7,21,10,38,?9?9?9?9E0?9?9?9*9*9?9?9?9?9?9?9*9?9*9*9?9*9,32.72,23.91,60.0,95537,0,0,409,0,0,0,0,0,0,0,235,0.69,8,8,8333.0,1096,9,999999999,87,0.2200,0,88,0.160,0.0,0.0
2026,7,21,10,39,?9?9?9?9E0?9?9?9?9?9?9?9?9?9?9?9*9?9*9*9?9*9,32.71,23.91,60.0,95536,0,0,402,0,0,0,0,0,0,0,222,0.57,9,9,8333.0,8400,9,999999999,87,0.2200,0,88,0.160,0.0,0.0
2026,7,21,10,40,?9?9?9?9E0?9?9?9*9*9?9?9?9?9?9?9*9?9*9*9?9*9,32.62,23.82,60.0,95535,0,0,395,0,0,0,0,0,0,0,217,0.41,9,9,8333.0,935,9,999999999,86,0.2200,0,88,0.160,0.0,0.0
2026,7,21,10,41,?9?9?9?9E0?9?9?9*9*9?9?9?9?9?9?9*9?9*9*9?9*9,32.59,23.72,59.7,95533,0,0,394,0,0,0,0,0,0,0,219,0.64,9,9,8333.0,407,9,999999999,85,0.2200,0,88,0.160,0.0,0.0
2026,7,21,10,42,?9?9?9?9E0?9?9?9?9?9?9?9?9?9?9?9*9?9*9*9?9*9,32.65,23.67,59.4,95532,0,0,403,0,0,0,0,0,0,0,218,0.31,9,9,8333.0,9000,9,999999999,84,0.2200,0,88,0.160,0.0,0.0
2026,7,21,10,43,?9?9?9?9E0?9?9?9*9*9?9?9?9?9?9?9*9?9*9*9?9*9,32.63,23.63,59.3,95531,0,0,385,0,0,0,0,0,0,0,208,0.47,10,10,8333.0,282,9,999999999,79,0.2200,0,88,0.160,0.0,0.0
2026,7,21,10,44,?9?9?9?9E0?9?9?9*9*9?9?9?9?9?9?9*9?9*9*9?9*9,32.66,23.64,59.2,95532,0,0,391,0,0,0,0,0,0,0,205,0.69,10,10,8333.0,314,9,999999999,81,0.2200,0,88,0.160,0.0,0.0
2026,7,21,10,45,?9?9?9?9E0?9?9?9?9?9?9?9?9?9?9?9*9?9*9*9?9*9,32.69,23.61,59.0,95531,0,0,399,0,0,0,0,0,0,0,206,0.57,8,8,8333.0,510,9,999999999,82,0.2200,0,88,0.160,0.0,0.0
2026,7,21,10,46,?9?9?9?9E0?9?9?9*9*9?9?9?9?9?9?9*9?9*9*9?9*9,32.71,23.68,59.2,95530,0,0,387,0,0,0,0,0,0,0,203,1.09,10,10,8333.0,723,9,999999999,79,0.2200,0,88,0.160,0.0,0.0
2026,7,21,10,47,?9?9?9?9E0?9?9?9*9*9?9?9?9?9?9?9*9?9*9*9?9*9,32.68,23.63,59.1,95530,0,0,382,0,0,0,0,0,0,0,201,0.16,10,10,8333.0,482,9,999999999,76,0.2200,0,88,0.160,0.0,0.0
2026,7,21,10,48,?9?9?9?9E0?9?9?9?9?9?9?9?9?9?9?9*9?9*9*9?9*9,32.59,23.52,59.0,95530,0,0,377,0,0,0,0,0,0,0,198,0.22,5,5,8333.0,801,9,999999999,73,0.2200,0,88,0.160,0.0,0.0
2026,7,21,10,49,?9?9?9?9E0?9?9?9*9*9?9?9?9?9?9?9*9?9*9*9?9*9,32.57,23.50,59.0,95532,306,1269,377,77,195,30,18896,37224,7116,2991,203,0.35,9,9,8333.0,789,9,999999999,74,0.2200,0,88,0.160,0.0,0.0
2026,7,21,10,50,?9?9?9?9E0?9?9?9*9*9?9?9?9?9?9?9*9?9*9*9?9*9,32.55,23.47,59.0,95532,609,1323,380,253,489,73,40863,59722,12106,3284,212,0.32,8,8,8333.0,257,9,999999999,76,0.2200,0,88,0.160,0.0,0.0
2026,7,21,10,51,?9?9?9?9E0?9?9?9?9?9?9?9?9?9?9?9*9?9*9*9?9*9,32.56,23.54,59.2,95533,874,1323,389,452,625,98,61611,64659,16685,2937,224,0.81,5,5,8333.0,380,9,999999999,77,0.2200,0,88,0.160,0.0,0.0
2026,7,21,10,52,?9?9?9?9E0?9?9?9?9?9?9?9?9?9?9?9*9?9*9*9?9*9,32.59,23.52,59.0,95531,1084,1323,396,617,672,119,77407,62713,19782,2561,240,0.24,5,5,8333.0,702,9,999999999,77,0.2200,0,88,0.160,0.0,0.0
2026,7,21,10,53,?9?9?9?9E0?9?9?9*9*9?9?9?9?9?9?9*9?9*9*9?9*9,32.56,23.50,59.0,95531,1224,1323,397,775,733,133,86984,53750,20186,2533,251,0.41,6,6,8333.0,752,9,999999999,78,0.2200,0,88,0.160,0.0,0.0
2026,7,21,10,54,?9?9?9?9E0?9?9?9?9?9?9?9?9?9?9?9*9?9*9*9?9*9,32.64,23.61,59.2,95529,1285,1323,406,861,766,134,90565,47215,21079,2800,320,0.76,6,6,8333.0,886,9,999999999,80,0.2200,0,88,0.160,0.0,0.0
2026,7,21,10,55,?9?9?9?9E0?9?9?9*9*9?9?9?9?9?9?9*9?9*9*9?9*9,32.76,23.73,59.2,95531,1262,1323,413,865,746,146,91799,58143,22877,3000,258,0.64,5,5,8333.0,1034,9,999999999,81,0.2200,0,88,0.160,0.1,0.0
2026,7,21,10,56,?9?9?9?9E0?9?9?9*9*9?9?9?9?9?9?9*9?9*9*9?9*9,32.73,23.45,58.3,95531,1157,1323,414,836,745,154,86460,66086,23276,3504,258,0.51,5,5,8333.0,926,9,999999999,83,0.2200,0,88,0.160,0.2,0.0
2026,7,21,10,57,?9?9?9?9E0?9?9?9?9?9?9?9?9?9?9?9*9?9*9*9?9*9,32.70,23.45,58.4,95532,978,1323,412,704,686,146,70350,63699,20530,4499,270,0.50,8,8,8333.0,540,9,999999999,84,0.2200,0,88,0.160,0.2,0.0
2026,7,21,10,58,?9?9?9?9E0?9?9?9*9*9?9?9?9?9?9?9*9?9*9*9?9*9,32.70,23.44,58.4,95535,736,1323,414,515,588,130,49412,55962,16280,6105,263,0.87,6,6,8333.0,1052,9,999999999,85,0.2200,0,88,0.160,0.0,0.0
2026,7,21,10,59,?9?9?9?9E0?9?9?9*9*9?9?9?9?9?9?9*9?9*9*9?9*9,32.72,23.59,58.8,95535,448,1323,411,323,464,105,27702,37441,11493,7346,252,0.69,6,6,8333.0,813,9,999999999,86,0.2200,0,88,0.160,0.0,0.0
2026,7,21,11,0,?9?9?9?9E0?9?9?9?9?9?9?9?9?9?9?9*9?9*9*9?9*9,32.74,23.51,58.5,95536,133,1323,413,128,232,59,9496,14742,5584,5094,247,0.72,9,9,8333.0,8400,9,999999999,86,0.2200,0,88,0.160,0.0,0.0
2026,7,21,11,1,?9?9?9?9E0?9?9?9*9*9?9?9?9?9?9?9*9?9*9*9?9*9,32.72,23.41,58.2,95537,0,551,410,20,0,16,1336,2125,1336,1318,243,0.52,7,7,8333.0,1014,9,999999999,87,0.2200,0,88,0.160,0.0,0.0
2026,7,21,11,2,?9?9?9?9E0?9?9?9*9*9?9?9?9?9?9?9*9?9*9*9?9*9,32.60,23.37,58.4,95536,0,0,409,0,0,0,0,0,0,0,235,0.43,8,8,8333.0,1096,9,999999999,87,0.2200,0,88,0.160,0.0,0.0
2026,7,21,11,3,?9?9?9?9E0?9?9?9?9?9?9?9?9?9?9?9*9?9*9*9?9*9,32.53,23.40,58.8,95537,0,0,402,0,0,0,0,0,0,0,222,0.60,9,9,8333.0,8400,9,999999999,87,0.2200,0,88,0.160,0.0,0.0
2026,7,21,11,4,?9?9?9?9E0?9?9?9*9*9?9?9?9?9?9?9*9?9*9*9?9*9,32.56,23.47,59.0,95537,0,0,395,0,0,0,0,0,0,0,217,0.72,9,9,8333.0,935,9,999999999,86,0.2200,0,88,0.160,0.0,0.0
2026,7,21,11,5,?9?9?9?9E0?9?9?9*9*9?9?9?9?9?9?9*9?9*9*9?9*9,32.62,23.51,58.9,95540,0,0,394,0,0,0,0,0,0,0,219,0.71,9,9,8333.0,407,9,999999999,85,0.2200,0,88,0.160,0.0,0.0
2026,7,21,11,6,?9?9?9?9E0?9?9?9?9?9?9?9?9?9?9?9*9?9*9*9?9*9,32.65,23.54,58.9,95541,0,0,403,0,0,0,0,0,0,0,218,0.43,9,9,8333.0,9000,9,999999999,84,0.2200,0,88,0.160,0.0,0.0
2026,7,21,11,7,?9?9?9?9E0?9?9?9*9*9?9?9?9?9?9?9*9?9*9*9?9*9,32.63,23.44,58.6,95543,0,0,385,0,0,0,0,0,0,0,208,0.54,10,10,8333.0,282,9,999999999,79,0.2200,0,88,0.160,0.0,0.0
2026,7,21,11,8,?9?9?9?9E0?9?9?9*9*9?9?9?9?9?9?9*9?9*9*9?9*9,32.60,23.40,58.6,95546,0,0,391,0,0,0,0,0,0,0,205,0.51,10,10,8333.0,314,9,999999999,81,0.2200,0,88,0.160,0.0,0.0
2026,7,21,11,9,?9?9?9?9E0?9?9?9?9?9?9?9?9?9?9?9*9?9*9*9?9*9,32.46,23.41,59.1,95544,0,0,399,0,0,0,0,0,0,0,206,0.73,8,8,8333.0,510,9,999999999,82,0.2200,0,88,0.160,0.0,0.0
2026,7,21,11,10,?9?9?9?9E0?9?9?9*9*9?9?9?9?9?9?9*9?9*9*9?9*9,32.55,23.59,59.4,95539,0,0,387,0,0,0,0,0,0,0,203,1.12,10,10,8333.0,723,9,999999999,79,0.2200,0,88,0.160,0.0,0.0
2026,7,21,11,11,?9?9?9?9E0?9?9?9*9*9?9?9?9?9?9?9*9?9*9*9?9*9,32.71,23.82,59.7,95523,0,0,382,0,0,0,0,0,0,0,201,1.14,10,10,8333.0,482,9,999999999,76,0.2200,0,88,0.160,0.0,0.0
2026,7,21,11,12,?9?9?9?9E0?9?9?9?9?9?9?9?9?9?9?9*9?9*9*9?9*9,32.73,23.97,60.1,95525,0,0,377,0,0,0,0,0,0,0,198,1.52,5,5,8333.0,801,9,999999999,73,0.2200,0,88,0.160,0.0,0.0
2026,7,21,11,13,?9?9?9?9E0?9?9?9*9*9?9?9?9?9?9?9*9?9*9*9?9*9,32.77,24.01,60.1,95523,306,1269,377,77,195,30,18896,37224,7116,2991,203,1.12,9,9,8333.0,789,9,999999999,74,0.2200,0,88,0.160,0.0,0.0
2026,7,21,11,14,?9?9?9?9E0?9?9?9*9*9?9?9?9?9?9?9*9?9*9*9?9*9,32.81,24.05,60.2,95521,609,1323,380,253,489,73,40863,59722,12106,3284,212,1.56,8,8,8333.0,257,9,999999999,76,0.2200,0,88,0.160,0.0,0.0
2026,7,21,11,15,?9?9?9?9E0?9?9?9?9?9?9?9?9?9?9?9*9?9*9*9?9*9,32.85,24.03,59.9,95517,874,1323,389,452,625,98,61611,64659,16685,2937,224,0.75,5,5,8333.0,380,9,999999999,77,0.2200,0,88,0.160,0.0,0.0
2026,7,21,11,16,?9?9?9?9E0?9?9?9?9?9?9?9?9?9?9?9*9?9*9*9?9*9,32.82,23.98,59.9,95521,1084,1323,396,617,672,119,77407,62713,19782,2561,240,1.57,5,5,8333.0,702,9,999999999,77,0.2200,0,88,0.160,0.0,0.0
2026,7,21,11,17,?9?9?9?9E0?9?9?9*9*9?9?9?9?9?9?9*9?9*9*9?9*9,32.81,23.91,59.7,95524,1224,1323,397,775,733,133,86984,53750,20186,2533,251,1.13,6,6,8333.0,752,9,999999999,78,0.2200,0,88,0.160,0.0,0.0
2026,7,21,11,18,?9?9?9?9E0?9?9?9?9?9?9?9?9?9?9?9*9?9*9*9?9*9,32.82,23.84,59.4,95526,1285,1323,406,861,766,134,90565,47215,21079,2800,320,1.17,6,6,8333.0,886,9,999999999,80,0.2200,0,88,0.160,0.0,0.0
2026,7,21,11,19,?9?9?9?9E0?9?9?9*9*9?9?9?9?9?9?9*9?9*9*9?9*9,32.79,23.83,59.5,95528,1262,1323,413,865,746,146,91799,58143,22877,3000,258,1.01,5,5,8333.0,1034,9,999999999,81,0.2200,0,88,0.160,0.1,0.0
2026,7,21,11,20,?9?9?9?9E0?9?9?9*9*9?9?9?9?9?9?9*9?9*9*9?9*9,32.79,23.83,59.4,95528,1157,1323,414,836,745,154,86460,66086,23276,3504,258,0.87,5,5,8333.0,926,9,999999999,83,0.2200,0,88,0.160,0.2,0.0
2026,7,21,11,21,?9?9?9?9E0?9?9?9?9?9?9?9?9?9?9?9*9?9*9*9?9*9,32.74,23.79,59.5,95527,978,1323,412,704,686,146,70350,63699,20530,4499,270,0.65,8,8,8333.0,540,9,999999999,84,0.2200,0,88,0.160,0.2,0.0
2026,7,21,11,22,?9?9?9?9E0?9?9?9*9*9?9?9?9?9?9?9*9?9*9*9?9*9,32.65,23.76,59.7,95525,736,1323,414,515,588,130,49412,55962,16280,6105,263,0.69,6,6,8333.0,1052,9,999999999,85,0.2200,0,88,0.160,0.0,0.0
2026,7,21,11,23,?9?9?9?9E0?9?9?9*9*9?9?9?9?9?9?9*9?9*9*9?9*9,32.65,23.77,59.7,95532,448,1323,411,323,464,105,27702,37441,11493,7346,252,1.19,6,6,8333.0,813,9,999999999,86,0.2200,0,88,0.160,0.0,0.0
2026,7,21,11,24,?9?9?9?9E0?9?9?9?9?9?9?9?9?9?9?9*9?9*9*9?9*9,32.68,23.78,59.6,95531,133,1323,413,128,232,59,9496,14742,5584,5094,247,1.08,9,9,8333.0,8400,9,999999999,86,0.2200,0,88,0.160,0.0,0.0
2026,7,21,11,25,?9?9?9?9E0?9?9?9*9*9?9?9?9?9?9?9*9?9*9*9?9*9,32.63,23.71,59.5,95529,0,551,410,20,0,16,1336,2125,1336,1318,243,0.64,7,7,8333.0,1014,9,999999999,87,0.2200,0,88,0.160,0.0,0.0
2026,7,21,11,26,?9?9?9?9E0?9?9?9*9*9?9?9?9?9?9?9*9?9*9*9?9*9,32.62,23.68,59.5,95528,0,0,409,0,0,0,0,0,0,0,235,0.99,8,8,8333.0,1096,9,999999999,87,0.2200,0,88,0.160,0.0,0.0
2026,7,21,11,27,?9?9?9?9E0?9?9?9?9?9?9?9?9?9?9?9*9?9*9*9?9*9,32.65,23.72,59.5,95522,0,0,402,0,0,0,0,0,0,0,222,0.93,9,9,8333.0,8400,9,999999999,87,0.2200,0,88,0.160,0.0,0.0
2026,7,21,11,28,?9?9?9?9E0?9?9?9*9*9?9?9?9?9?9?9*9?9*9*9?9*9,32.66,23.77,59.7,95521,0,0,395,0,0,0,0,0,0,0,217,0.87,9,9,8333.0,935,9,999999999,86,0.2200,0,88,0.160,0.0,0.0
2026,7,21,11,29,?9?9?9?9E0?9?9?9*9*9?9?9?9?9?9?9*9?9*9*9?9*9,32.63,23.72,59.6,95523,0,0,394,0,0,0,0,0,0,0,219,0.65,9,9,8333.0,407,9,999999999,85,0.2200,0,88,0.160,0.0,0.0
2026,7,21,11,30,?9?9?9?9E0?9?9?9?9?9?9?9?9?9?9?9*9?9*9*9?9*9,32.53,23.62,59.6,95527,0,0,403,0,0,0,0,0,0,0,218,0.42,9,9,8333.0,9000,9,999999999,84,0.2200,0,88,0.160,0.0,0.0
2026,7,21,11,31,?9?9?9?9E0?9?9?9*9*9?9?9?9?9?9?9*9?9*9*9?9*9,32.47,23.56,59.5,95525,0,0,385,0,0,0,0,0,0,0,208,0.24,10,10,8333.0,282,9,999999999,79,0.2200,0,88,0.160,0.0,0.0
2026,7,21,11,32,?9?9?9?9E0?9?9?9*9*9?9?9?9?9?9?9*9?9*9*9?9*9,32.46,23.52,59.4,95522,0,0,391,0,0,0,0,0,0,0,205,0.71,10,10,8333.0,314,9,999999999,81,0.2200,0,88,0.160,0.0,0.0
2026,7,21,11,33,?9?9?9?9E0?9?9?9?9?9?9?9?9?9?9?9*9?9*9*9?9*9,32.52,23.63,59.6,95525,0,0,399,0,0,0,0,0,0,0,206,0.68,8,8,8333.0,510,9,999999999,82,0.2200,0,88,0.160,0.0,0.0
2026,7,21,11,34,?9?9?9?9E0?9?9?9*9*9?9?9?9?9?9?9*9?9*9*9?9*9,32.53,23.65,59.7,95527,0,0,387,0,0,0,0,0,0,0,203,1.13,10,10,8333.0,723,9,999999999,79,0.2200,0,88,0.160,0.0,0.0
